 vasp.5.4.4.18Apr17-6-g9f103f2a35 (build Jun 14 2024 12:30:39) gamma-only
 executed on NVIDIA22.7_CrayMPICH date 2025.05.06  18:54:17

 INCAR:
 POTCAR:   PAW_PBE Si 05Jan2001
 POTCAR:   PAW_PBE C 08Apr2002
 POTCAR:   PAW_PBE Si 05Jan2001
   VRHFIN =Si: s2p2

   TITEL  = PAW_PBE Si 05Jan2001
   POMASS =   28.085; ZVAL   =    4.000    mass and valenz
   ENMAX  =  245.345; ENMIN  =  184.009 eV
   QCUT   =   -4.246; QGAM   =    8.493    optimization parameters

   Description
     l     E      TYP  RCUT    TYP  RCUT
     0   .000     23  1.900
     0   .000     23  1.900
     1   .000     23  1.900
     1   .000     23  1.900
     2   .000      7  1.900

 POTCAR:   PAW_PBE C 08Apr2002
   VRHFIN =C: s2p2

   TITEL  = PAW_PBE C 08Apr2002
   POMASS =   12.011; ZVAL   =    4.000    mass and valenz
   ENMAX  =  400.000; ENMIN  =  300.000 eV
   QCUT   =   -5.516; QGAM   =   11.032    optimization parameters

   Description
     l     E      TYP  RCUT    TYP  RCUT
     0   .000     23  1.200
     0   .000     23  1.200
     1   .000     23  1.500
     1  2.500     23  1.500
     2   .000      7  1.500

 Optimization of the real space projectors (new method)

 maximal supplied QI-value         = 19.84
 optimisation between [QCUT,QGAM] = [ 10.12, 20.44] = [ 28.68,116.96] Ry
 Optimized for a Real-space Cutoff    1.38 Angstroem

   l    n(q)    QCUT    max X(q) W(low)/X(q) W(high)/X(q)  e(spline)
   0      8    10.119     8.708    0.16E-04    0.67E-05    0.60E-08
   0      8    10.119   106.241    0.56E-04    0.11E-03    0.54E-07
   1      8    10.119     5.901    0.16E-04    0.16E-05    0.22E-07
   1      8    10.119    73.241    0.22E-03    0.17E-03    0.18E-06
 Optimization of the real space projectors (new method)

 maximal supplied QI-value         = 25.13
 optimisation between [QCUT,QGAM] = [ 10.05, 20.36] = [ 28.30,116.06] Ry
 Optimized for a Real-space Cutoff    1.38 Angstroem

   l    n(q)    QCUT    max X(q) W(low)/X(q) W(high)/X(q)  e(spline)
   0      8    10.053     5.582    0.33E-04    0.15E-04    0.75E-07
   0      8    10.053    69.432    0.23E-03    0.38E-03    0.25E-06
   1      8    10.053     2.780    0.76E-04    0.11E-03    0.15E-06
   1      8    10.053     4.549    0.19E-03    0.19E-03    0.27E-06
 PAW_PBE Si 05Jan2001                   :
 PAW_PBE C 08Apr2002                    :

 POSCAR: Si1 C214
  positions in direct lattice
  velocities in cartesian coordinates
 exchange correlation table for  LEXCH =        8
   RHO(1)=    0.500       N(1)  =     2000
   RHO(2)=  100.500       N(2)  =     4000

 ion  position               nearest neighbor table
   1  0.500  0.500  0.500- 108 1.98 131 1.98  16 1.98  71 1.98 162 1.98 215 1.98
   2  0.041  0.041  0.875-  91 1.54 139 1.54  41 1.54 189 1.54
   3  0.042  0.042  0.208-  92 1.53 140 1.53  42 1.54 190 1.54
   4  0.042  0.042  0.542-  93 1.53 141 1.53 191 1.54  43 1.54
   5  0.041  0.375  0.876-  44 1.53 142 1.53 192 1.54  94 1.54
   6  0.043  0.375  0.209- 143 1.53  45 1.53  95 1.54 193 1.54
   7  0.042  0.375  0.542- 144 1.53 194 1.54  96 1.54  46 1.54
   8  0.041  0.708  0.875- 136 1.53  38 1.53  97 1.54 195 1.54
   9  0.042  0.709  0.208-  39 1.54 137 1.54  98 1.54 196 1.54
  10  0.041  0.709  0.542- 138 1.53 197 1.54  99 1.54  40 1.54
  11  0.375  0.041  0.876-  50 1.53 100 1.53 198 1.54 148 1.54
  12  0.375  0.043  0.209- 101 1.53  51 1.53 149 1.54 199 1.54
  13  0.375  0.042  0.542- 102 1.53 200 1.54 150 1.54  52 1.54
  14  0.375  0.375  0.876-  53 1.53 201 1.54 151 1.54 103 1.54
  15  0.377  0.377  0.211-  54 1.53 104 1.54 152 1.54 202 1.55
  16  0.374  0.374  0.552- 105 1.51 153 1.51 203 1.54   1 1.98
  17  0.374  0.708  0.875- 204 1.53  47 1.54 145 1.54 106 1.54
  18  0.375  0.711  0.206- 107 1.53  48 1.53 205 1.53 146 1.54
  19  0.371  0.711  0.542- 108 1.51 206 1.52 147 1.53  49 1.55
  20  0.708  0.041  0.875-  82 1.53  32 1.53 157 1.54 207 1.54
  21  0.709  0.042  0.208-  33 1.54  83 1.54 158 1.54 208 1.54
  22  0.709  0.041  0.542-  84 1.53 209 1.54 159 1.54  34 1.54
  23  0.708  0.374  0.875- 210 1.53  35 1.54  85 1.54 160 1.54
  24  0.711  0.375  0.206- 161 1.53  36 1.53 211 1.53  86 1.54
  25  0.711  0.371  0.542- 162 1.51 212 1.52  87 1.53  37 1.55
  26  0.707  0.707  0.873-  29 1.53  88 1.54 154 1.54 213 1.55
  27  0.709  0.709  0.207-  30 1.53 214 1.54 155 1.54  89 1.54
  28  0.705  0.705  0.539- 215 1.54 156 1.54  90 1.54  31 1.56
  29  0.791  0.791  0.791-  26 1.53  75 1.53 117 1.53 163 1.54
  30  0.792  0.792  0.124-  27 1.53  73 1.53 115 1.53 164 1.54
  31  0.791  0.791  0.457-  74 1.54 116 1.54 165 1.54  28 1.56
  32  0.792  0.124  0.792-  78 1.53  20 1.53 111 1.53 166 1.54
  33  0.792  0.125  0.125-  21 1.54  76 1.54 109 1.54 167 1.54
  34  0.793  0.124  0.458-  77 1.53 110 1.53 168 1.54  22 1.54
  35  0.791  0.457  0.791-  23 1.54 114 1.54 169 1.54  81 1.56
  36  0.793  0.458  0.124-  24 1.53 112 1.53 170 1.54  79 1.54
  37  0.792  0.458  0.458- 171 1.53 113 1.53  25 1.55  80 1.55
  38  0.124  0.792  0.792- 126 1.53  57 1.53   8 1.53 172 1.54
  39  0.125  0.792  0.125-   9 1.54 124 1.54  55 1.54 173 1.54
  40  0.124  0.793  0.458- 125 1.53  56 1.53 174 1.54  10 1.54
  41  0.125  0.125  0.792-  60 1.54 120 1.54   2 1.54 175 1.54
  42  0.126  0.126  0.126-   3 1.54  58 1.54 118 1.54 176 1.54
  43  0.126  0.126  0.459-  59 1.53 119 1.53 177 1.54   4 1.54
  44  0.124  0.458  0.793- 123 1.53   5 1.53 178 1.54  63 1.54
  45  0.126  0.459  0.126-   6 1.53 121 1.53 179 1.54  61 1.54
  46  0.125  0.459  0.459- 180 1.53 122 1.53   7 1.54  62 1.54
  47  0.457  0.791  0.791-  17 1.54  66 1.54 181 1.54 135 1.56
  48  0.458  0.793  0.124-  18 1.53  64 1.53 182 1.54 133 1.54
  49  0.458  0.792  0.458- 183 1.53  65 1.53 134 1.55  19 1.55
  50  0.458  0.124  0.793-  69 1.53  11 1.53 184 1.54 129 1.54
  51  0.459  0.126  0.126-  12 1.53  67 1.53 185 1.54 127 1.54
  52  0.459  0.125  0.459- 186 1.53  68 1.53  13 1.54 128 1.54
  53  0.458  0.458  0.792- 187 1.53  14 1.53 132 1.55  72 1.55
  54  0.459  0.459  0.125- 188 1.53  15 1.53  70 1.54 130 1.54
  55  0.041  0.875  0.041-  91 1.54 190 1.54  39 1.54 136 1.54
  56  0.041  0.876  0.375-  40 1.53 191 1.53 137 1.54  92 1.54
  57  0.041  0.875  0.708- 189 1.53  38 1.53  93 1.54 138 1.54
  58  0.042  0.208  0.042-  94 1.53 193 1.53  42 1.54 139 1.54
  59  0.043  0.209  0.375- 194 1.53  43 1.53  95 1.54 140 1.54
  60  0.042  0.208  0.709-  41 1.54 192 1.54  96 1.54 141 1.54
[...]
 201  0.291  0.291  0.793- 175 1.53  14 1.54 123 1.54  69 1.54
 202  0.293  0.293  0.127- 176 1.53 121 1.54  67 1.54  15 1.55
 203  0.295  0.295  0.461-  16 1.54  68 1.54 122 1.54 177 1.56
 204  0.289  0.625  0.794-  72 1.53 178 1.53  17 1.53 126 1.54
 205  0.292  0.626  0.125-  18 1.53 179 1.54 124 1.54  70 1.54
 206  0.289  0.629  0.458-  71 1.51  19 1.52 125 1.53 180 1.55
 207  0.625  0.957  0.791- 129 1.53 181 1.53  75 1.54  20 1.54
 208  0.625  0.959  0.124- 182 1.53 127 1.53  21 1.54  73 1.54
 209  0.625  0.958  0.458- 128 1.53  22 1.54  74 1.54 183 1.54
 210  0.625  0.289  0.794- 132 1.53 184 1.53  23 1.53  78 1.54
 211  0.626  0.292  0.125-  24 1.53 185 1.54  76 1.54 130 1.54
 212  0.629  0.289  0.458- 131 1.51  25 1.52  77 1.53 186 1.55
 213  0.623  0.623  0.789- 187 1.53 135 1.54  81 1.54  26 1.55
 214  0.625  0.625  0.124- 188 1.53  27 1.54 133 1.54  79 1.54
 215  0.626  0.626  0.448-  80 1.51 134 1.51  28 1.54   1 1.98

IMPORTANT INFORMATION: All symmetrisations will be switched off!
NOSYMM: (Re-)initialisation of all symmetry stuff for point group C_1.

 KPOINTS: pymatgen v1.1 with grid density = 2210 /

Automatic generation of k-mesh.
Space group operators:
 irot       det(A)        alpha          n_x          n_y          n_z        tau_x        tau_y        tau_z
    1     1.000000     0.000001     1.000000     0.000000     0.000000     0.000000     0.000000     0.000000

 Subroutine IBZKPT returns following result:

 Found      1 irreducible k-points:

 Following reciprocal coordinates:
            Coordinates               Weight
  0.000000  0.000000  0.000000      1.000000

 Following cartesian coordinates:
            Coordinates               Weight
  0.000000  0.000000  0.000000      1.000000

 Subroutine IBZKPT_HF returns following result:

 Found      1 k-points in 1st BZ
 the following      1 k-points will be used (e.g. in the exchange kernel)
 Following reciprocal coordinates:   # in IRBZ
  0.000000  0.000000  0.000000    1.00000000   1 t-inv F

 SYSTEM =  unknown system
 POSCAR =  Si1 C214

 Startparameter for this run:
   NWRITE =      2    write-flag & timer
   PREC   = accura    normal or accurate (medium, high low for compatibility)
   ISTART =      0    job   : 0-new  1-cont  2-samecut
   ICHARG =      2    charge: 1-file 2-atom 10-const
   ISPIN  =      2    spin polarized calculation?
   LNONCOLLINEAR =      F non collinear calculations
   LSORBIT =      F    spin-orbit coupling
   INIWAV =      1    electr: 0-lowe 1-rand  2-diag
   LASPH  =      F    aspherical Exc in radial PAW
   METAGGA=      F    non-selfconsistent MetaGGA calc.

 Electronic Relaxation 1
   ENCUT  =  400.0 eV  29.40 Ry    5.42 a.u.  17.36 17.36 17.36*2*pi/ulx,y,z
   ENINI  =  400.0     initial cutoff
   ENAUG  =  644.9 eV  augmentation charge cutoff
   NELM   =    100;   NELMIN=  2; NELMDL=  0     # of ELM steps
   EDIFF  = 0.1E-04   stopping-criterion for ELM
   LREAL  =      T    real-space projection
   NLSPLINE    = F    spline interpolate recip. space projectors
   LCOMPAT=      F    compatible to vasp.4.4
   GGA_COMPAT  = T    GGA compatible to vasp.4.4-vasp.4.6
   LMAXPAW     = -100 max onsite density
   LMAXMIX     =    2 max onsite mixed and CHGCAR
   VOSKOWN=      0    Vosko Wilk Nusair interpolation
   ROPT   =   -0.00025  -0.00025
 Ionic relaxation
   EDIFFG = -.1E-01   stopping-criterion for IOM
   NSW    =     99    number of steps for IOM
   NBLOCK =      1;   KBLOCK =     99    inner block; outer block
   IBRION =      1    ionic relax: 0-MD 1-quasi-New 2-CG
   NFREE  =      0    steps in history (QN), initial steepest desc. (CG)
   ISIF   =      2    stress and relaxation
   IWAVPR =     11    prediction:  0-non 1-charg 2-wave 3-comb
   ISYM   =      0    0-nonsym 1-usesym 2-fastsym
   LCORR  =      T    Harris-Foulkes like correction to forces

   POTIM  = 0.5000    time-step for ionic-motion
   TEIN   =    0.0    initial temperature
   TEBEG  =    0.0;   TEEND  =   0.0 temperature during run
   SMASS  =  -3.00    Nose mass-parameter (am)
   estimated Nose-frequenzy (Omega)   =  0.10E-29 period in steps =****** mass=  -0.259E-26a.u.
   SCALEE = 1.0000    scale energy and forces
   NPACO  =    256;   APACO  = 16.0  distance and # of slots for P.C.
   PSTRESS=    0.0 pullay stress

  Mass of Ions in am
   POMASS =  28.09 12.01
  Ionic Valenz
   ZVAL   =   4.00  4.00
  Atomic Wigner-Seitz radii
  virtual crystal weights
   VCA    =   1.00  1.00
   NELECT =     860.0000    total number of electrons
   NUPDOWN=       2.0000    fix difference up-down

 DOS related values:
   EMIN   =  10.00;   EMAX   =-10.00  energy-range for DOS
   EFERMI =   0.00
   ISMEAR =    -2;   SIGMA  =   0.05  broadening in eV -4-tet -1-fermi 0-gaus

 Electronic relaxation 2 (details)
[...]
   -.379E+01 -.413E+01 0.345E+01   0.384E+01 0.424E+01 -.344E+01   -.512E-01 -.104E+00 -.107E-01
   -.398E+01 -.189E+01 0.505E+01   0.394E+01 0.184E+01 -.512E+01   0.430E-01 0.495E-01 0.652E-01
   -.520E+01 -.375E+01 -.220E+02   0.555E+01 0.345E+01 0.222E+02   -.336E+00 0.285E+00 -.192E+00
   -.435E+02 -.371E+02 0.488E+02   0.473E+02 0.413E+02 -.530E+02   -.359E+01 -.405E+01 0.399E+01
   -.662E+01 0.190E+01 0.635E+01   0.663E+01 -.192E+01 -.656E+01   -.277E-02 0.186E-01 0.195E+00
   -.318E+01 0.495E+01 -.942E+01   0.312E+01 -.473E+01 0.919E+01   0.517E-01 -.223E+00 0.232E+00
   -.254E+02 0.210E+02 0.624E+01   0.257E+02 -.207E+02 -.575E+01   -.336E+00 -.294E+00 -.465E+00
   0.333E+01 0.135E+01 0.406E+01   -.340E+01 -.144E+01 -.408E+01   0.636E-01 0.892E-01 0.204E-01
   0.360E+01 -.963E+00 -.390E+01   -.364E+01 0.964E+00 0.395E+01   0.378E-01 -.626E-03 -.528E-01
   0.517E+01 -.848E+00 0.557E+00   -.522E+01 0.776E+00 -.584E+00   0.528E-01 0.729E-01 0.297E-01
   0.433E+01 -.494E+01 0.593E+01   -.439E+01 0.500E+01 -.581E+01   0.574E-01 -.527E-01 -.109E+00
   0.602E+01 0.168E+01 -.769E+01   -.621E+01 -.143E+01 0.785E+01   0.171E+00 -.238E+00 -.134E+00
   0.233E+02 -.218E+02 0.727E+01   -.228E+02 0.214E+02 -.808E+01   -.494E+00 0.436E+00 0.775E+00
   0.587E+01 0.410E+01 0.930E+01   -.591E+01 -.410E+01 -.938E+01   0.432E-01 -.176E-03 0.887E-01
   0.626E+01 0.349E+01 -.815E+01   -.623E+01 -.357E+01 0.840E+01   -.368E-01 0.652E-01 -.231E+00
   0.252E+02 0.219E+02 -.181E+01   -.260E+02 -.224E+02 0.143E+01   0.755E+00 0.552E+00 0.375E+00
   0.514E+01 0.335E+01 0.597E+01   -.519E+01 -.331E+01 -.603E+01   0.472E-01 -.265E-01 0.662E-01
   0.184E+01 -.292E-01 -.148E+01   -.190E+01 -.441E-03 0.154E+01   0.613E-01 0.287E-01 -.505E-01
   0.994E+01 0.765E+01 -.773E+01   -.103E+02 -.805E+01 0.812E+01   0.398E+00 0.388E+00 -.363E+00
   0.235E+01 -.282E+00 0.324E+01   -.228E+01 0.157E+00 -.318E+01   -.634E-01 0.124E+00 -.552E-01
   0.179E+01 -.998E+00 -.291E+01   -.180E+01 0.999E+00 0.298E+01   0.245E-02 0.107E-02 -.629E-01
   0.548E+01 -.243E+01 -.270E+01   -.557E+01 0.236E+01 0.262E+01   0.801E-01 0.755E-01 0.770E-01
   0.900E+01 -.651E+01 0.101E+02   -.885E+01 0.649E+01 -.991E+01   -.145E+00 0.275E-01 -.139E+00
   0.392E+01 -.313E+01 -.263E+01   -.396E+01 0.307E+01 0.277E+01   0.275E-01 0.573E-01 -.121E+00
   0.246E+02 -.547E+01 -.833E+01   -.249E+02 0.604E+01 0.794E+01   0.241E+00 -.539E+00 0.385E+00
   -.120E+01 0.183E+00 0.293E+01   0.122E+01 -.187E+00 -.298E+01   -.176E-01 0.428E-02 0.439E-01
   -.231E+01 -.851E-01 -.287E+01   0.230E+01 0.120E+00 0.288E+01   0.185E-02 -.362E-01 -.905E-02
   -.390E+01 0.343E+01 -.265E+01   0.374E+01 -.329E+01 0.281E+01   0.163E+00 -.138E+00 -.157E+00
   -.233E+01 -.992E+00 0.268E+01   0.239E+01 0.101E+01 -.269E+01   -.661E-01 -.126E-01 0.126E-01
   -.369E+01 -.263E+01 -.416E+01   0.374E+01 0.267E+01 0.420E+01   -.501E-01 -.369E-01 -.500E-01
   -.571E+01 -.414E+01 -.103E+01   0.585E+01 0.426E+01 0.115E+01   -.141E+00 -.122E+00 -.117E+00
   -.196E+01 -.324E+01 0.485E+01   0.211E+01 0.313E+01 -.494E+01   -.139E+00 0.106E+00 0.778E-01
   -.478E+01 0.854E+00 -.554E+01   0.465E+01 -.985E+00 0.542E+01   0.118E+00 0.123E+00 0.113E+00
   -.119E+02 0.819E+00 0.831E+00   0.120E+02 -.868E+00 -.834E+00   -.467E-01 0.433E-01 -.237E-02
   -.726E+01 0.741E+01 0.108E+02   0.756E+01 -.770E+01 -.111E+02   -.282E+00 0.276E+00 0.288E+00
   -.291E+01 0.286E+01 -.392E+01   0.306E+01 -.271E+01 0.381E+01   -.148E+00 -.147E+00 0.115E+00
   -.627E+01 0.236E+02 -.731E+01   0.656E+01 -.239E+02 0.738E+01   -.274E+00 0.266E+00 -.673E-01
   -.299E+01 -.182E+01 0.590E+01   0.286E+01 0.182E+01 -.602E+01   0.128E+00 0.122E-01 0.118E+00
   -.662E+00 -.389E+01 -.622E+01   0.734E+00 0.395E+01 0.631E+01   -.711E-01 -.685E-01 -.916E-01
   0.256E+00 -.113E+02 0.311E+00   -.362E+00 0.113E+02 -.409E+00   0.981E-01 -.748E-01 0.896E-01
   -.783E+01 -.598E+01 0.250E+02   0.751E+01 0.639E+01 -.253E+02   0.319E+00 -.394E+00 0.248E+00
   0.106E+01 0.114E+01 -.123E+02   -.104E+01 -.116E+01 0.123E+02   -.222E-01 0.144E-01 -.434E-01
   0.244E+00 0.690E+00 0.275E-01   -.300E+00 -.661E+00 -.756E-01   0.526E-01 -.296E-01 0.459E-01
   -.104E+01 0.542E+00 -.142E+01   0.952E+00 -.476E+00 0.137E+01   0.865E-01 -.679E-01 0.445E-01
   0.704E+00 0.208E+01 0.401E+01   -.713E+00 -.211E+01 -.404E+01   0.119E-01 0.278E-01 0.306E-01
   -.106E+01 0.712E+00 -.138E+01   0.108E+01 -.715E+00 0.139E+01   -.236E-01 -.168E-04 -.158E-01
   -.420E+01 -.277E+01 -.976E+00   0.427E+01 0.274E+01 0.990E+00   -.743E-01 0.254E-01 -.153E-01
   -.793E+00 -.684E+00 0.396E+01   0.921E+00 0.708E+00 -.407E+01   -.121E+00 -.210E-01 0.109E+00
[...]
   -.587E+01 -.410E+01 -.930E+01   0.591E+01 0.409E+01 0.939E+01   -.433E-01 0.215E-03 -.888E-01
   -.252E+02 -.219E+02 0.181E+01   0.260E+02 0.224E+02 -.143E+01   -.755E+00 -.552E+00 -.375E+00
   -.602E+01 -.168E+01 0.769E+01   0.621E+01 0.143E+01 -.785E+01   -.171E+00 0.238E+00 0.134E+00
   -.433E+01 0.494E+01 -.593E+01   0.440E+01 -.500E+01 0.581E+01   -.574E-01 0.527E-01 0.109E+00
   -.233E+02 0.218E+02 -.727E+01   0.228E+02 -.214E+02 0.808E+01   0.494E+00 -.436E+00 -.775E+00
   0.394E+00 0.375E+01 0.567E+01   -.388E+00 -.383E+01 -.576E+01   0.218E-03 0.856E-01 0.838E-01
   0.318E+00 0.640E-01 -.229E+01   -.318E+00 -.641E-01 0.231E+01   -.361E-03 -.181E-02 -.913E-02
   0.379E+01 0.413E+01 -.346E+01   -.384E+01 -.424E+01 0.345E+01   0.512E-01 0.104E+00 0.106E-01
   0.317E+01 -.495E+01 0.942E+01   -.312E+01 0.473E+01 -.919E+01   -.517E-01 0.223E+00 -.232E+00
   0.662E+01 -.189E+01 -.635E+01   -.663E+01 0.192E+01 0.656E+01   0.279E-02 -.186E-01 -.195E+00
   0.254E+02 -.210E+02 -.624E+01   -.257E+02 0.207E+02 0.575E+01   0.336E+00 0.293E+00 0.465E+00
   0.520E+01 0.376E+01 0.220E+02   -.554E+01 -.345E+01 -.222E+02   0.336E+00 -.285E+00 0.192E+00
   0.398E+01 0.189E+01 -.504E+01   -.393E+01 -.184E+01 0.512E+01   -.429E-01 -.496E-01 -.652E-01
   0.435E+02 0.371E+02 -.488E+02   -.473E+02 -.413E+02 0.530E+02   0.359E+01 0.405E+01 -.399E+01
   -.164E-05 0.486E-03 0.689E-04   -.789E-12 0.298E-12 0.185E-12   0.640E-04 -.574E-04 -.231E-03

 POSITION                                       TOTAL-FORCE (eV/Angst)
      5.32304      5.32304      5.32304         0.000034     -0.000074      0.000038
      0.44133      0.44113      9.31618         0.000130      0.000623      0.001720
      0.44856      0.44822      2.21930        -0.001139      0.000301     -0.001054
      0.44505      0.44460      5.76781         0.000433     -0.000825      0.000924
      0.43845      3.99005      9.32490        -0.001544     -0.001742      0.001456
      0.45367      3.99496      2.22295        -0.001955     -0.001701     -0.001089
      0.44501      3.99132      5.77049        -0.000429     -0.000847      0.001245
      0.43435      7.54095      9.31264        -0.000870      0.000913      0.001113
      0.44169      7.54717      2.21178        -0.000057     -0.001170     -0.000654
      0.43654      7.54233      5.76549         0.001639     -0.001683      0.002394
      3.99001      0.44002      9.32170        -0.000790      0.000362     -0.001203
      3.99699      0.45540      2.22602        -0.002515     -0.001293     -0.000130
      3.99409      0.44779      5.76953        -0.000233      0.000460      0.001211
      3.98702      3.98750      9.32800        -0.001877     -0.001828     -0.000063
      4.00824      4.00896      2.22984        -0.000028      0.001201     -0.000803
      3.98355      4.02275      5.86649        -0.002308      0.006380     -0.000322
      3.98184      7.54203      9.32041         0.000522     -0.001801      0.000269
      3.98465      7.56371      2.19137        -0.001848     -0.001786      0.000629
      3.96510      7.54896      5.77131        -0.002257      0.001113     -0.001976
      7.53911      0.43351      9.31114         0.002690      0.001296      0.000736
      7.54437      0.44387      2.21513        -0.000279      0.000299     -0.000364
      7.53965      0.43817      5.76408         0.000377      0.002269      0.003135
      7.54325      3.98419      9.32155         0.000222      0.001415      0.000526
      7.56935      3.99028      2.18850        -0.003411      0.000386      0.002090
      7.56325      3.97272      5.76217        -0.002438      0.003545     -0.000993
      7.53176      7.53197      9.30174         0.004607     -0.000689      0.002025
      7.54863      7.54550      2.20240        -0.001288     -0.000938      0.000178
      7.50824      7.49963      5.73813         0.000508      0.001849      0.002445
      8.41792      8.41846      8.41764         0.002749      0.000615      0.002529
      8.43017      8.43077      1.32007         0.001390      0.001375     -0.001116
      8.41768      8.41434      4.86950         0.000223      0.000370     -0.001713
      8.42912      1.31986      8.42918         0.000353     -0.000213      0.000030
      8.43351      1.32893      1.33039         0.001134      0.000619     -0.002176
      8.43630      1.32241      4.87853         0.000258      0.002249     -0.000910
      8.43150      4.86660      8.43339         0.000238     -0.001849      0.001594
      8.44571      4.87798      1.31372         0.000054      0.004080     -0.000718
      8.43779      4.88006      4.86798         0.000060     -0.000190      0.000589
      1.32056      8.42991      8.42935        -0.000586      0.000899      0.000252
      1.32998      8.43435      1.33010        -0.000354     -0.000446     -0.001309
      1.32089      8.43791      4.88033         0.002072     -0.001410     -0.001303
      1.32966      1.32842      8.43338        -0.001859      0.001004      0.002379
      1.33712      1.33632      1.33764        -0.001026     -0.000590     -0.001493
      1.33970      1.33933      4.88601        -0.002079      0.000326     -0.002892
      1.31388      4.87725      8.44548        -0.000028      0.001553      0.001510
      1.33378      4.88270      1.33379         0.000053     -0.000536     -0.000820
      1.33279      4.88451      4.88613         0.001176     -0.000330     -0.001369
      4.86969      8.41656      8.42169         0.000377     -0.000490      0.000587
      4.87998      8.44119      1.31750         0.000267     -0.000809      0.000153
      4.87863      8.42009      4.87495         0.001374     -0.001342     -0.000589
      4.87770      1.31957      8.43914        -0.000073      0.001139      0.001613
      4.88507      1.33815      1.33866        -0.000521      0.000150     -0.002675
      4.88511      1.34126      4.88564         0.000290      0.001097     -0.000373
      4.86845      4.87618      8.44601         0.002672     -0.001038      0.000282
      4.88576      4.88495      1.32920        -0.001245     -0.000118     -0.000707
      0.44128      9.31766      0.44112        -0.001813     -0.000575     -0.000907
      0.44209      9.32306      3.98931         0.000274     -0.001340     -0.000541
      0.43486      9.31314      7.53940        -0.000703     -0.000448      0.001437
      0.44802      2.21798      0.44850        -0.001337     -0.001599     -0.001492
      0.45463      2.22249      3.99643        -0.001628     -0.000481      0.000145
      0.44187      2.21231      7.54481        -0.001342     -0.000490      0.002052
[...]
      3.09743      3.10056      8.44366         0.001331      0.000878     -0.000224
      3.11430      3.11410      1.34432        -0.004654      0.000604     -0.001978
      3.13782      3.14643      4.90792        -0.000511     -0.001908     -0.002445
      3.07670      6.65579      8.45756         0.003508     -0.000440     -0.002139
      3.10281      6.66188      1.32451        -0.000219     -0.001405     -0.000574
      3.08281      6.67335      4.88390         0.002449     -0.003615      0.001036
      6.64907     10.19065      8.42004         0.002518      0.001352      0.000106
      6.65605     10.20603      1.32436         0.000797     -0.000315      0.001152
      6.65197     10.19826      4.87653         0.000235     -0.000377     -0.001202
      6.66141      3.08236      8.45469         0.001891      0.001795     -0.000670
      6.66421      3.10404      1.32565        -0.000449      0.001810     -0.000298
      6.68095      3.09711      4.87476         0.002282     -0.001116      0.002045
      6.63782      6.63712      8.41622         0.000008     -0.001338      0.000816
      6.65904      6.65857      1.31807         0.001980      0.001779     -0.000005
      6.66252      6.62332      4.77957         0.002359     -0.006476      0.000381
    total drift:                                0.000074      0.000378     -0.000162

  FREE ENERGIE OF THE ION-ELECTRON SYSTEM (eV)
  free  energy   TOTEN  =     -2409.67573878 eV

  energy  without entropy=    -2409.67573878  energy(sigma->0) =    -2409.67573878

 d Force = 0.1466557E-03[ 0.239E-05, 0.291E-03]  d Energy = 0.1482204E-03-0.156E-05
 d Force = 0.4570213E-01[ 0.454E-01, 0.460E-01]  d Ewald  = 0.4570154E-01 0.596E-06

 Quasi-Newton relaxation of ions (Broydens 2nd method)
  g(Force)  = 0.714E-04   g(Stress)= 0.000E+00

 retain information from N=  4 steps
 eigenvalues of (default step * inverse Hessian matrix)
  average eigenvalue of G=   2.5659
 eigenvalue spectrum of G is  7.6379  1.6630  0.4813  0.4813

 reached required accuracy - stopping structural energy minimisation
 writing wavefunctions

 total charge

[...]

 magnetization (x)

# of ion       s       p       d       tot
    1       -0.004   0.084   0.000   0.080
    2       -0.000   0.000   0.000   0.000
    3        0.000   0.001   0.000   0.001
    4        0.000   0.003   0.000   0.003
    5       -0.000   0.000   0.000   0.000
    6       -0.000   0.000   0.000   0.000
    7        0.000   0.001   0.000   0.001
    8        0.000   0.001   0.000   0.001
    9        0.000   0.005   0.000   0.005
   10       -0.000   0.000   0.000   0.000
   11        0.000   0.001   0.000   0.001
   12        0.000   0.001   0.000   0.001
   13       -0.000   0.000   0.000   0.000
   14       -0.000   0.001   0.000   0.000
   15        0.000   0.008   0.000   0.008
   16        0.001   0.015   0.000   0.016
   17       -0.000  -0.000   0.000  -0.000
   18        0.003   0.026   0.000   0.029
   19        0.002   0.022   0.000   0.024
   20       -0.000   0.000   0.000   0.000
   21        0.000   0.001   0.000   0.001
   22       -0.000   0.000   0.000   0.000
   23       -0.000  -0.000   0.000  -0.001
   24        0.001   0.006   0.000   0.007
   25       -0.000   0.015   0.000   0.015
   26       -0.000  -0.000   0.000  -0.000
   27       -0.000   0.000   0.000   0.000
   28       -0.000   0.000   0.000  -0.000
   29        0.000   0.000   0.000   0.000
   30       -0.000   0.000   0.000   0.000
   31        0.000   0.001   0.000   0.001
   32        0.000   0.003   0.000   0.003
   33        0.000   0.001   0.000   0.001
   34        0.000   0.005   0.000   0.005
   35        0.003   0.026   0.000   0.029
   36        0.000   0.000   0.000   0.000
   37       -0.000   0.003   0.000   0.003
   38        0.000   0.001   0.000   0.001
   39       -0.000   0.000   0.000   0.000
   40        0.001   0.007   0.000   0.008
   41        0.000   0.001   0.000   0.001
   42        0.000   0.001   0.000   0.001
   43       -0.000  -0.000   0.000  -0.000
   44        0.000   0.000   0.000   0.000
   45        0.000   0.002   0.000   0.002
   46       -0.000  -0.000   0.000  -0.000
   47        0.001   0.006   0.000   0.007
   48        0.001   0.005   0.000   0.006
   49       -0.000  -0.000   0.000  -0.001
   50        0.000   0.003   0.000   0.004
   51       -0.000   0.000   0.000   0.000
   52        0.000   0.001   0.000   0.001
   53        0.000   0.004   0.000   0.004
   54       -0.000  -0.000   0.000  -0.000
   55        0.000   0.002   0.000   0.002
   56        0.000   0.004   0.000   0.004
   57       -0.000   0.000   0.000   0.000
   58       -0.000   0.000   0.000   0.000
   59        0.000   0.001   0.000   0.001
   60       -0.000   0.000   0.000   0.000
[...]
  201       -0.000   0.000   0.000   0.000
  202       -0.000  -0.000   0.000  -0.000
  203       -0.000   0.000   0.000  -0.000
  204        0.001   0.006   0.000   0.007
  205       -0.000  -0.000   0.000  -0.001
  206       -0.000   0.015   0.000   0.015
  207        0.000   0.001   0.000   0.001
  208        0.000   0.001   0.000   0.001
  209       -0.000   0.000   0.000   0.000
  210        0.003   0.026   0.000   0.029
  211       -0.000  -0.000   0.000  -0.000
  212        0.002   0.022   0.000   0.024
  213        0.000   0.008   0.000   0.008
  214       -0.000   0.001   0.000   0.000
  215        0.001   0.015   0.000   0.016
tot          0.086   1.277   0.000   1.363