 vasp.5.4.4.18Apr17-6-g9f103f2a35 (build Dec 19 2024 10:44:08) gamma-only
 executed on NVIDIA22.7_CrayMPICH date 2025.02.13  18:38:07

 INCAR:
 POTCAR:   PAW_PBE Si 05Jan2001
 POTCAR:   PAW_PBE C 08Apr2002
 POTCAR:   PAW_PBE Si 05Jan2001
   VRHFIN =Si: s2p2

   TITEL  = PAW_PBE Si 05Jan2001
   POMASS =   28.085; ZVAL   =    4.000    mass and valenz
   ENMAX  =  245.345; ENMIN  =  184.009 eV
   QCUT   =   -4.246; QGAM   =    8.493    optimization parameters

   Description
     l     E      TYP  RCUT    TYP  RCUT
     0   .000     23  1.900
     0   .000     23  1.900
     1   .000     23  1.900
     1   .000     23  1.900
     2   .000      7  1.900

 POTCAR:   PAW_PBE C 08Apr2002
   VRHFIN =C: s2p2

   TITEL  = PAW_PBE C 08Apr2002
   POMASS =   12.011; ZVAL   =    4.000    mass and valenz
   ENMAX  =  400.000; ENMIN  =  300.000 eV
   QCUT   =   -5.516; QGAM   =   11.032    optimization parameters

   Description
     l     E      TYP  RCUT    TYP  RCUT
     0   .000     23  1.200
     0   .000     23  1.200
     1   .000     23  1.500
     1  2.500     23  1.500
     2   .000      7  1.500

 Optimization of the real space projectors (new method)

 maximal supplied QI-value         = 19.84
 optimisation between [QCUT,QGAM] = [ 10.12, 20.44] = [ 28.68,116.96] Ry
 Optimized for a Real-space Cutoff    1.38 Angstroem

   l    n(q)    QCUT    max X(q) W(low)/X(q) W(high)/X(q)  e(spline)
   0      8    10.119     8.708    0.16E-04    0.67E-05    0.60E-08
   0      8    10.119   106.241    0.56E-04    0.11E-03    0.54E-07
   1      8    10.119     5.901    0.16E-04    0.16E-05    0.22E-07
   1      8    10.119    73.241    0.22E-03    0.17E-03    0.18E-06
 Optimization of the real space projectors (new method)

 maximal supplied QI-value         = 25.13
 optimisation between [QCUT,QGAM] = [ 10.05, 20.36] = [ 28.30,116.06] Ry
 Optimized for a Real-space Cutoff    1.38 Angstroem

   l    n(q)    QCUT    max X(q) W(low)/X(q) W(high)/X(q)  e(spline)
   0      8    10.053     5.582    0.33E-04    0.15E-04    0.75E-07
   0      8    10.053    69.432    0.23E-03    0.38E-03    0.25E-06
   1      8    10.053     2.780    0.76E-04    0.11E-03    0.15E-06
   1      8    10.053     4.549    0.19E-03    0.19E-03    0.27E-06
 PAW_PBE Si 05Jan2001                   :
 PAW_PBE C 08Apr2002                    :

 POSCAR: generated by phonopy
  positions in direct lattice
  velocities in cartesian coordinates
 exchange correlation table for  LEXCH =        8
   RHO(1)=    0.500       N(1)  =     2000
   RHO(2)=  100.500       N(2)  =     4000

 ion  position               nearest neighbor table
   1  0.000  0.000  0.000-  26 1.98 189 1.98 136 1.98  75 1.98  82 1.98 117 1.98
   2  0.205  0.205  0.039- 189 1.54 139 1.54  91 1.54  40 1.56
   3  0.207  0.207  0.373-  41 1.53  92 1.54 140 1.54 190 1.55
   4  0.209  0.209  0.707-  42 1.53 191 1.54 141 1.54  93 1.54
   5  0.209  0.541  0.042-  94 1.53 192 1.54 142 1.54  43 1.54
   6  0.208  0.541  0.375-  95 1.53  44 1.53 143 1.54 193 1.54
   7  0.209  0.542  0.708-  45 1.54  96 1.54 144 1.54 194 1.54
   8  0.211  0.871  0.042- 136 1.51 195 1.52  97 1.53  37 1.55
   9  0.208  0.874  0.375- 196 1.53  38 1.54  98 1.54 137 1.54
  10  0.211  0.875  0.706- 138 1.53  39 1.53 197 1.53  99 1.54
  11  0.541  0.209  0.042- 148 1.53 198 1.54 100 1.54  49 1.54
  12  0.541  0.208  0.375- 149 1.53  50 1.53 101 1.54 199 1.54
  13  0.542  0.209  0.708-  51 1.54 150 1.54 102 1.54 200 1.54
  14  0.542  0.542  0.042- 103 1.53 151 1.53 201 1.54  52 1.54
  15  0.541  0.541  0.375- 104 1.54 152 1.54  53 1.54 202 1.54
  16  0.542  0.542  0.708- 153 1.53 105 1.53  54 1.54 203 1.54
  17  0.542  0.875  0.042- 145 1.53 204 1.54 106 1.54  46 1.54
  18  0.541  0.875  0.376-  47 1.53 146 1.53 205 1.54 107 1.54
  19  0.543  0.875  0.709- 147 1.53  48 1.53 108 1.54 206 1.54
  20  0.871  0.211  0.042-  82 1.51 207 1.52 157 1.53  31 1.55
  21  0.874  0.208  0.375- 208 1.53  32 1.54 158 1.54  83 1.54
  22  0.875  0.211  0.706-  84 1.53  33 1.53 209 1.53 159 1.54
  23  0.875  0.542  0.042-  85 1.53 210 1.54 160 1.54  34 1.54
  24  0.875  0.541  0.376-  35 1.53  86 1.53 211 1.54 161 1.54
  25  0.875  0.543  0.709-  87 1.53  36 1.53 162 1.54 212 1.54
  26  0.874  0.874  0.052-  88 1.51 154 1.51 213 1.54   1 1.98
  27  0.875  0.875  0.376-  29 1.53 214 1.54 155 1.54  89 1.54
  28  0.877  0.877  0.711-  30 1.53  90 1.54 156 1.54 215 1.55
  29  0.958  0.958  0.292- 163 1.53  27 1.53 115 1.55  73 1.55
  30  0.959  0.959  0.625- 164 1.53  28 1.53 116 1.54  74 1.54
  31  0.958  0.292  0.958- 165 1.53  78 1.53  20 1.55 111 1.55
  32  0.957  0.291  0.291-  21 1.54  76 1.54 166 1.54 109 1.56
  33  0.958  0.293  0.624-  22 1.53  77 1.53 167 1.54 110 1.54
  34  0.959  0.625  0.959- 168 1.53  81 1.53  23 1.54 114 1.54
  35  0.958  0.624  0.293-  79 1.53  24 1.53 169 1.54 112 1.54
  36  0.959  0.626  0.626-  25 1.53  80 1.53 170 1.54 113 1.54
  37  0.292  0.958  0.958- 171 1.53 126 1.53   8 1.55  57 1.55
  38  0.291  0.957  0.291-   9 1.54 124 1.54 172 1.54  55 1.56
  39  0.293  0.958  0.624-  10 1.53 125 1.53 173 1.54  56 1.54
  40  0.291  0.291  0.957-  60 1.54 120 1.54 174 1.54   2 1.56
  41  0.291  0.291  0.291-   3 1.53  58 1.53 118 1.53 175 1.54
  42  0.292  0.292  0.624-   4 1.53  59 1.53 119 1.53 176 1.54
  43  0.293  0.624  0.958-  63 1.53 123 1.53 177 1.54   5 1.54
  44  0.292  0.624  0.292-  61 1.53   6 1.53 121 1.53 178 1.54
  45  0.292  0.625  0.625-   7 1.54  62 1.54 122 1.54 179 1.54
  46  0.625  0.959  0.959- 180 1.53 135 1.53  17 1.54  66 1.54
  47  0.624  0.958  0.293- 133 1.53  18 1.53 181 1.54  64 1.54
  48  0.626  0.959  0.626-  19 1.53 134 1.53 182 1.54  65 1.54
  49  0.624  0.293  0.958- 129 1.53  69 1.53 183 1.54  11 1.54
  50  0.624  0.292  0.292- 127 1.53  12 1.53  67 1.53 184 1.54
  51  0.625  0.292  0.625-  13 1.54 128 1.54  68 1.54 185 1.54
  52  0.626  0.626  0.959-  72 1.53 132 1.53 186 1.54  14 1.54
  53  0.625  0.625  0.292-  70 1.54 130 1.54  15 1.54 187 1.54
  54  0.626  0.626  0.626-  16 1.54 131 1.54  71 1.54 188 1.54
  55  0.205  0.039  0.205- 136 1.54  91 1.54 190 1.54  38 1.56
  56  0.209  0.042  0.541-  92 1.53 137 1.54 191 1.54  39 1.54
  57  0.211  0.042  0.871- 189 1.51 138 1.52  93 1.53  37 1.55
  58  0.207  0.373  0.207-  41 1.53  94 1.54 193 1.54 139 1.55
  59  0.208  0.375  0.541-  95 1.53  42 1.53 194 1.54 140 1.54
  60  0.208  0.375  0.874- 141 1.53  40 1.54  96 1.54 192 1.54
[...]
 201  0.458  0.458  0.958-  69 1.53 123 1.53  14 1.54 174 1.54
 202  0.458  0.458  0.292-  67 1.53 121 1.53 175 1.54  15 1.54
 203  0.459  0.459  0.625-  68 1.54 122 1.54 176 1.54  16 1.54
 204  0.459  0.791  0.958-  72 1.53  17 1.54 126 1.54 177 1.54
 205  0.458  0.791  0.292- 178 1.54  70 1.54 124 1.54  18 1.54
 206  0.459  0.792  0.625-  71 1.53 179 1.53 125 1.54  19 1.54
 207  0.789  0.129  0.958-  75 1.51  20 1.52 129 1.53 180 1.55
 208  0.789  0.125  0.294-  73 1.53 181 1.53  21 1.53 127 1.54
 209  0.792  0.126  0.625-  22 1.53 182 1.54 128 1.54  74 1.54
 210  0.791  0.459  0.958- 132 1.53  23 1.54  78 1.54 183 1.54
 211  0.791  0.458  0.292- 184 1.54 130 1.54  76 1.54  24 1.54
 212  0.792  0.459  0.625- 131 1.53 185 1.53  77 1.54  25 1.54
 213  0.795  0.795  0.961-  26 1.54  81 1.54 135 1.54 186 1.56
 214  0.791  0.791  0.293- 187 1.53  27 1.54 133 1.54  79 1.54
 215  0.793  0.793  0.627- 188 1.53 134 1.54  80 1.54  28 1.55

IMPORTANT INFORMATION: All symmetrisations will be switched off!
NOSYMM: (Re-)initialisation of all symmetry stuff for point group C_1.

 KPOINTS: pymatgen v1.1 with grid density = 2210 /

Automatic generation of k-mesh.
Space group operators:
 irot       det(A)        alpha          n_x          n_y          n_z        tau_x        tau_y        tau_z
    1     1.000000     0.000000     1.000000     0.000000     0.000000     0.000000     0.000000     0.000000

 Subroutine IBZKPT returns following result:

 Found      1 irreducible k-points:

 Following reciprocal coordinates:
            Coordinates               Weight
  0.000000  0.000000  0.000000      1.000000

 Following cartesian coordinates:
            Coordinates               Weight
  0.000000  0.000000  0.000000      1.000000

 Subroutine IBZKPT_HF returns following result:

 Found      1 k-points in 1st BZ
 the following      1 k-points will be used (e.g. in the exchange kernel)
 Following reciprocal coordinates:   # in IRBZ
  0.000000  0.000000  0.000000    1.00000000   1 t-inv F

 SYSTEM =  unknown system
 POSCAR =  generated by phonopy

 Startparameter for this run:
   NWRITE =      2    write-flag & timer
   PREC   = accura    normal or accurate (medium, high low for compatibility)
   ISTART =      0    job   : 0-new  1-cont  2-samecut
   ICHARG =      2    charge: 1-file 2-atom 10-const
   ISPIN  =      2    spin polarized calculation?
   LNONCOLLINEAR =      F non collinear calculations
   LSORBIT =      F    spin-orbit coupling
   INIWAV =      1    electr: 0-lowe 1-rand  2-diag
   LASPH  =      F    aspherical Exc in radial PAW
   METAGGA=      F    non-selfconsistent MetaGGA calc.

 Electronic Relaxation 1
   ENCUT  =  400.0 eV  29.40 Ry    5.42 a.u.  17.36 17.36 17.36*2*pi/ulx,y,z
   ENINI  =  400.0     initial cutoff
   ENAUG  =  644.9 eV  augmentation charge cutoff
   NELM   =    100;   NELMIN=  2; NELMDL=  0     # of ELM steps
   EDIFF  = 0.1E-04   stopping-criterion for ELM
   LREAL  =      T    real-space projection
   NLSPLINE    = F    spline interpolate recip. space projectors
   LCOMPAT=      F    compatible to vasp.4.4
   GGA_COMPAT  = T    GGA compatible to vasp.4.4-vasp.4.6
   LMAXPAW     = -100 max onsite density
   LMAXMIX     =    2 max onsite mixed and CHGCAR
   VOSKOWN=      0    Vosko Wilk Nusair interpolation
   ROPT   =   -0.00025  -0.00025
 Ionic relaxation
   EDIFFG = -.1E-01   stopping-criterion for IOM
   NSW    =     99    number of steps for IOM
   NBLOCK =      1;   KBLOCK =     99    inner block; outer block
   IBRION =      2    ionic relax: 0-MD 1-quasi-New 2-CG
   NFREE  =      1    steps in history (QN), initial steepest desc. (CG)
   ISIF   =      2    stress and relaxation
   IWAVPR =     11    prediction:  0-non 1-charg 2-wave 3-comb
   ISYM   =      0    0-nonsym 1-usesym 2-fastsym
   LCORR  =      T    Harris-Foulkes like correction to forces

   POTIM  = 0.5000    time-step for ionic-motion
   TEIN   =    0.0    initial temperature
   TEBEG  =    0.0;   TEEND  =   0.0 temperature during run
   SMASS  =  -3.00    Nose mass-parameter (am)
   estimated Nose-frequenzy (Omega)   =  0.10E-29 period in steps =****** mass=  -0.259E-26a.u.
   SCALEE = 1.0000    scale energy and forces
   NPACO  =    256;   APACO  = 16.0  distance and # of slots for P.C.
   PSTRESS=    0.0 pullay stress

  Mass of Ions in am
   POMASS =  28.09 12.01
  Ionic Valenz
   ZVAL   =   4.00  4.00
  Atomic Wigner-Seitz radii
  virtual crystal weights
   VCA    =   1.00  1.00
   NELECT =     860.0000    total number of electrons
   NUPDOWN=       2.0000    fix difference up-down

 DOS related values:
   EMIN   =  10.00;   EMAX   =-10.00  energy-range for DOS
   EFERMI =   0.00
   ISMEAR =    -2;   SIGMA  =   0.05  broadening in eV -4-tet -1-fermi 0-gaus

 Electronic relaxation 2 (details)
[...]
   0.273E+00 -.340E+01 -.242E+00   -.283E+00 0.333E+01 0.247E+00   0.667E-02 0.664E-01 -.683E-02
   0.245E+00 -.466E+00 0.586E+00   -.253E+00 0.408E+00 -.628E+00   0.916E-02 0.549E-01 0.393E-01
   0.393E+00 -.154E+01 -.998E+00   -.384E+00 0.155E+01 0.101E+01   -.956E-02 -.139E-01 -.213E-01
   -.326E+00 -.579E+01 -.393E+01   0.196E+00 0.591E+01 0.392E+01   0.124E+00 -.114E+00 0.131E-01
   0.498E+00 -.167E+01 -.122E+01   -.528E+00 0.157E+01 0.117E+01   0.278E-01 0.106E+00 0.413E-01
   -.202E+01 0.227E+00 -.472E+01   0.207E+01 -.171E+00 0.477E+01   -.475E-01 -.548E-01 -.466E-01
   -.309E+02 -.567E+01 0.389E+01   0.310E+02 0.522E+01 -.411E+01   -.128E-01 0.432E+00 0.217E+00
   -.841E+01 -.386E+01 0.264E+01   0.848E+01 0.393E+01 -.258E+01   -.653E-01 -.655E-01 -.538E-01
   -.708E+01 0.730E+01 0.618E+00   0.740E+01 -.744E+01 -.529E+00   -.288E+00 0.129E+00 -.885E-01
   0.122E+01 -.514E+01 -.307E+01   -.113E+01 0.523E+01 0.303E+01   -.804E-01 -.792E-01 0.411E-01
   0.724E+00 -.431E+00 -.384E+00   -.701E+00 0.366E+00 0.386E+00   -.200E-01 0.690E-01 -.391E-03
   0.331E+01 0.101E+00 -.409E+01   -.333E+01 -.741E-01 0.409E+01   0.280E-01 -.271E-01 -.105E-01
   0.388E+01 -.731E+02 -.280E+02   -.365E+01 0.761E+02 0.285E+02   -.223E+00 -.281E+01 -.435E+00
   0.119E+01 -.807E+01 -.297E+01   -.119E+01 0.812E+01 0.315E+01   0.209E-02 -.520E-01 -.170E+00
   0.540E+00 0.116E+02 -.182E+02   -.740E+00 -.119E+02 0.185E+02   0.190E+00 0.284E+00 -.329E+00
   0.123E+01 -.248E+02 0.579E+01   -.960E+00 0.252E+02 -.574E+01   -.254E+00 -.349E+00 -.358E-01
   -.609E-01 0.942E+01 -.611E+01   0.500E-01 -.956E+01 0.604E+01   0.895E-02 0.134E+00 0.587E-01
   -.231E+02 0.122E+02 0.654E+01   0.231E+02 -.127E+02 -.667E+01   -.104E-01 0.449E+00 0.115E+00
   -.128E+02 -.439E+01 0.653E+01   0.131E+02 0.459E+01 -.665E+01   -.330E+00 -.185E+00 0.120E+00
   -.640E+01 0.248E+01 0.765E+00   0.640E+01 -.261E+01 -.908E+00   0.100E-01 0.116E+00 0.137E+00
   0.950E+01 -.559E+01 -.573E+01   -.951E+01 0.562E+01 0.577E+01   0.115E-01 -.281E-01 -.378E-01
   0.631E+00 -.497E+01 -.241E+01   -.482E+00 0.489E+01 0.252E+01   -.145E+00 0.889E-01 -.972E-01
   0.415E+01 0.315E+00 -.612E+01   -.416E+01 -.306E+00 0.620E+01   0.123E-01 -.909E-02 -.889E-01
   0.231E+02 0.109E+02 0.614E+01   -.231E+02 -.116E+02 -.617E+01   -.832E-01 0.696E+00 0.317E-01
   0.123E+02 -.567E+01 0.544E+01   -.129E+02 0.601E+01 -.570E+01   0.564E+00 -.322E+00 0.262E+00
   0.554E+01 0.324E+01 0.137E-03   -.555E+01 -.321E+01 -.119E+00   0.511E-02 -.381E-01 0.112E+00
   -.131E+01 0.131E+02 0.724E+01   0.131E+01 -.130E+02 -.711E+01   -.603E-02 -.815E-01 -.117E+00
   -.102E+01 0.176E+01 0.831E+01   0.104E+01 -.182E+01 -.835E+01   -.226E-01 0.591E-01 0.509E-01
   -.108E+01 0.248E+01 0.298E+01   0.109E+01 -.235E+01 -.299E+01   -.995E-02 -.131E+00 0.436E-02
   0.456E+01 0.277E+01 -.139E+01   -.465E+01 -.271E+01 0.143E+01   0.714E-01 -.639E-01 -.373E-01
   0.213E+01 -.340E-01 -.124E+00   -.222E+01 0.645E-01 0.102E+00   0.824E-01 -.289E-01 0.258E-01
   0.321E+01 0.162E+00 -.156E+01   -.325E+01 -.138E+00 0.160E+01   0.368E-01 -.277E-01 -.334E-01
   -.882E+01 -.509E+01 -.596E+01   0.887E+01 0.515E+01 0.595E+01   -.442E-01 -.583E-01 0.738E-02
   -.884E+00 -.558E+01 -.158E+01   0.663E+00 0.547E+01 0.163E+01   0.214E+00 0.105E+00 -.493E-01
   -.306E+01 0.767E+00 -.626E+01   0.308E+01 -.767E+00 0.650E+01   -.165E-01 -.309E-02 -.239E+00
   -.489E+01 0.408E+01 0.131E+00   0.506E+01 -.396E+01 -.175E+00   -.156E+00 -.110E+00 0.423E-01
   -.309E+01 0.645E+00 0.146E+01   0.312E+01 -.662E+00 -.147E+01   -.219E-01 0.172E-01 0.154E-01
   -.356E+01 0.119E+01 -.780E-01   0.361E+01 -.119E+01 0.119E+00   -.557E-01 -.271E-02 -.399E-01
   0.944E+00 -.480E+01 -.551E+01   -.950E+00 0.480E+01 0.533E+01   0.461E-02 -.584E-02 0.171E+00
   0.708E+00 -.207E+01 -.299E+01   -.720E+00 0.206E+01 0.301E+01   0.129E-01 0.215E-01 -.280E-01
   0.587E+00 -.102E+01 -.604E+01   -.588E+00 0.103E+01 0.612E+01   -.168E-02 -.780E-02 -.801E-01
   0.186E+02 -.870E+01 0.263E+02   -.189E+02 0.871E+01 -.274E+02   0.240E+00 -.142E-01 0.104E+01
   0.291E+01 0.298E+01 0.261E+01   -.295E+01 -.295E+01 -.270E+01   0.319E-01 -.297E-01 0.937E-01
   0.114E+02 0.303E+02 0.447E+01   -.105E+02 -.301E+02 -.475E+01   -.824E+00 -.217E+00 0.278E+00
   -.282E+01 0.279E+01 0.109E+02   0.286E+01 -.284E+01 -.109E+02   -.358E-01 0.472E-01 0.634E-01
   -.873E+00 0.182E+01 0.495E+01   0.847E+00 -.179E+01 -.503E+01   0.258E-01 -.318E-01 0.924E-01
   -.165E+01 0.812E+01 0.283E+01   0.156E+01 -.815E+01 -.280E+01   0.916E-01 0.260E-01 -.301E-01
[...]
   -.393E+00 0.154E+01 0.998E+00   0.384E+00 -.155E+01 -.102E+01   0.953E-02 0.140E-01 0.213E-01
   -.244E+00 0.465E+00 -.585E+00   0.253E+00 -.408E+00 0.626E+00   -.913E-02 -.548E-01 -.393E-01
   0.458E+01 -.250E+01 -.312E+01   -.461E+01 0.242E+01 0.308E+01   0.300E-01 0.718E-01 0.337E-01
   0.349E+01 -.209E+01 -.161E+01   -.366E+01 0.211E+01 0.158E+01   0.167E+00 -.219E-01 0.277E-01
   0.248E+01 -.302E+00 -.418E+01   -.249E+01 0.303E+00 0.423E+01   0.610E-02 0.579E-04 -.511E-01
   -.315E+02 0.783E+01 -.129E+01   0.320E+02 -.706E+01 0.107E+01   -.390E+00 -.743E+00 0.199E+00
   -.894E+01 -.690E+01 0.252E+01   0.901E+01 0.688E+01 -.252E+01   -.593E-01 0.204E-01 0.440E-02
   -.819E+01 0.508E+01 -.805E+00   0.824E+01 -.527E+01 0.849E+00   -.424E-01 0.173E+00 -.502E-01
   -.351E+01 -.146E+01 -.211E+01   0.357E+01 0.143E+01 0.204E+01   -.477E-01 0.359E-01 0.602E-01
   -.280E+01 -.117E+01 -.535E+00   0.289E+01 0.116E+01 0.559E+00   -.788E-01 0.137E-01 -.251E-01
   -.169E+01 0.171E+00 -.300E+01   0.172E+01 -.203E+00 0.301E+01   -.220E-01 0.273E-01 -.996E-02
   0.224E+01 -.236E+02 -.215E+02   -.233E+01 0.243E+02 0.211E+02   0.853E-01 -.673E+00 0.393E+00
   0.161E+01 -.990E+01 -.471E+01   -.155E+01 0.990E+01 0.486E+01   -.602E-01 0.787E-02 -.141E+00
   0.942E+00 0.556E+00 -.131E+02   -.952E+00 -.581E+00 0.134E+02   0.932E-02 0.246E-01 -.299E+00
   0.587E-03 0.936E-03 0.307E-03   -.592E-12 0.462E-13 0.345E-12   -.116E-02 -.928E-03 -.415E-03

 POSITION                                       TOTAL-FORCE (eV/Angst)
     -0.00000      0.00001      0.00001         0.000023      0.000158      0.000044
     -0.00496      1.44808      2.78498        -0.001045     -0.001571      0.000840
      0.00015     -1.44302      4.83917        -0.000506      0.002548      0.003346
     -0.00226     -4.33476      6.91376         0.000416     -0.002431     -0.000452
     -2.49928      2.89635      4.86312        -0.000739      0.000171      0.000258
     -2.50320     -0.00325      6.90914        -0.000827      0.001690      0.000069
     -2.50442     -2.89068      8.96148        -0.000715     -0.001667      0.002007
     -4.95507      4.33048      6.90845         0.001948     -0.000383      0.000571
     -5.01336      1.44546      8.95776        -0.003358      0.001473      0.004867
     -5.00422     -1.43777     11.01342         0.000240      0.000756     -0.003074
      2.50173      2.89711      4.86175        -0.000599      0.000799      0.000621
      2.50427     -0.00210      6.90711         0.000380     -0.002669     -0.000084
      2.50551     -2.89251      8.96180        -0.000420      0.001661     -0.001097
      0.00006      4.34357      6.91586        -0.003675      0.001828     -0.000842
      0.00008      1.44501      8.96221         0.000965     -0.002047     -0.000608
     -0.00052     -1.44510     11.01800        -0.001124      0.002076     -0.001716
     -2.50826      5.79420      8.96659        -0.000270      0.001421      0.000883
     -2.50797      2.88996     11.01432         0.000009      0.000998     -0.000785
     -2.50447      0.00217     13.07342        -0.002399      0.000010      0.001609
      4.95290      4.34245      6.91500         0.002659      0.001733      0.002424
      5.01508      1.44789      8.95867         0.001295      0.000739      0.002923
      5.00009     -1.42862     11.01580         0.003029      0.001396     -0.001691
      2.50880      5.79172      8.96430         0.001792      0.002166      0.004119
      2.50966      2.88712     11.01451         0.002507      0.002405      0.003154
      2.50390      0.00329     13.07065         0.000248      0.000441     -0.001189
      0.02158      7.10793     11.00717        -0.000220      0.001222     -0.002183
      0.00067      4.34326     13.06237         0.000500     -0.000648     -0.000498
      0.00011      1.43835     15.15206         0.000219      0.003114     -0.002324
      0.00447      5.79873     13.56604         0.001343      0.001472      0.003004
     -0.00062      2.89395     15.63524        -0.001742      0.000363     -0.001193
      4.99681     -2.88935     13.57657        -0.002032      0.001197     -0.003163
      5.01474      2.89990      9.46169         0.000873     -0.000165     -0.000685
      5.00864      0.01405     11.52357        -0.001436      0.002201     -0.000197
      2.51562     -1.45207     15.62762        -0.002046      0.003504     -0.001510
      2.51968      4.32877     11.52468         0.000678      0.001386     -0.000150
      2.50783      1.44831     13.58479         0.001364     -0.001086     -0.002264
     -5.00632     -2.90075     13.57159        -0.000013     -0.000743     -0.000184
     -5.01966      2.90027      9.45499         0.001943     -0.004134     -0.000683
     -5.01297      0.00878     11.52434         0.000603     -0.000423     -0.001050
     -0.00225     -5.78217      9.47240        -0.001778     -0.000382     -0.000680
      0.00030     -0.00046      5.36052         0.000647     -0.001107      0.001783
     -0.00004     -2.88794      7.42193        -0.000586     -0.000447     -0.002288
     -2.48482     -4.34516     11.52435        -0.003494     -0.000939     -0.001190
     -2.49984      1.44301      7.42364        -0.002023     -0.002411      0.002744
     -2.50515     -1.44520      9.47804        -0.000540     -0.003689     -0.001628
     -2.51151     -1.44868     15.63127        -0.000985      0.004350     -0.000725
     -2.51603      4.33596     11.52509         0.001170     -0.000170     -0.000858
     -2.50759      1.44804     13.58807         0.000440     -0.004059     -0.004209
      2.48559     -4.34430     11.52366        -0.002033      0.001326     -0.001007
      2.50134      1.44386      7.42257         0.000824     -0.001186     -0.000897
      2.50465     -1.44530      9.47677        -0.003641     -0.001404     -0.000933
      0.00001     -2.89752     13.57956        -0.001109     -0.000953     -0.002605
     -0.00022      2.89185      9.47862         0.000659      0.000689     -0.002034
     -0.00052      0.00071     11.53569        -0.002746      0.001637     -0.001650
      1.25067     -0.71667      2.75592        -0.002900      0.000436      0.001880
      1.25538     -3.61926      4.86059        -0.001747      0.002901      0.005121
      1.27011     -6.49948      6.91267        -0.006172     -0.004171      0.000817
     -1.25168      0.72264      4.84832         0.001116      0.000469      0.002902
     -1.25290     -2.16731      6.90558         0.002544      0.003400      0.003607
     -1.25782     -5.05983      8.96396        -0.001213     -0.001708      0.002648
[...]
     -0.00006     -4.34357     11.52366         0.003643     -0.001946      0.000584
      0.00052      1.44510      7.42153         0.001065     -0.002200      0.001510
     -0.00008     -1.44502      9.47731        -0.000970      0.001882      0.000512
     -2.50173     -2.89710     13.57777         0.000441     -0.000787     -0.000762
     -2.50551      2.89250      9.47772         0.000282     -0.001753      0.001023
     -2.50427      0.00209     11.53240        -0.000551      0.002546      0.000047
      4.95507     -4.33048     11.53107        -0.002021      0.000585     -0.000536
      5.00422      1.43777      7.42609        -0.000287     -0.000747      0.003180
      5.01336     -1.44546      9.48176         0.003301     -0.001493     -0.004720
      2.49928     -2.89635     13.57639         0.000850     -0.000148     -0.000400
      2.50442      2.89068      9.47804         0.000830      0.001554     -0.002074
      2.50320      0.00325     11.53038         0.000973     -0.001801     -0.000099
      0.00496     -1.44807     15.65453         0.001014      0.001708     -0.000849
      0.00226      4.33475     11.52576        -0.000384      0.002380      0.000485
     -0.00015      1.44303     13.60035         0.000449     -0.002558     -0.003270
    total drift:                               -0.000599     -0.000037     -0.000123

  FREE ENERGIE OF THE ION-ELECTRON SYSTEM (eV)
  free  energy   TOTEN  =     -2409.65909153 eV

  energy  without entropy=    -2409.65909153  energy(sigma->0) =    -2409.65909153

 d Force = 0.8771233E-04[-0.372E-05, 0.179E-03]  d Energy = 0.8866733E-04-0.955E-06
 d Force = 0.4306129E-01[ 0.428E-01, 0.434E-01]  d Ewald  = 0.4306099E-01 0.292E-06

 Conjugate gradient step on ions:
 trial-energy change:   -0.000089  1 .order   -0.000088   -0.000179    0.000004
  (g-gl).g = 0.254E-03      g.g   = 0.259E-03  gl.gl    = 0.724E-03
 g(Force)  = 0.259E-03   g(Stress)= 0.000E+00 ortho     = 0.114E-04
 gamma     =   0.35012
 trial     =   0.68004
 opt step  =   0.66619  (harmonic =   0.66619) maximal distance =0.00039064
 next E    = -2409.659091   (d E  =  -0.00009)

 reached required accuracy - stopping structural energy minimisation
 writing wavefunctions

 total charge

[...]

 magnetization (x)

# of ion       s       p       d       tot
    1       -0.004   0.084   0.000   0.080
    2       -0.002  -0.002   0.000  -0.004
    3       -0.000   0.000   0.000   0.000
    4       -0.000  -0.001   0.000  -0.001
    5       -0.000   0.000   0.000   0.000
    6       -0.000   0.000   0.000   0.000
    7        0.000   0.002   0.000   0.002
    8        0.000   0.005   0.000   0.006
    9       -0.000   0.000   0.000   0.000
   10        0.001   0.011   0.000   0.013
   11       -0.000   0.000   0.000   0.000
   12       -0.000   0.000   0.000   0.000
   13       -0.000   0.000   0.000   0.000
   14        0.000   0.002   0.000   0.003
   15        0.000   0.002   0.000   0.002
   16       -0.000   0.000   0.000   0.000
   17        0.000   0.001   0.000   0.001
   18        0.000   0.004   0.000   0.004
   19        0.000   0.001   0.000   0.001
   20       -0.000  -0.000   0.000  -0.000
   21       -0.000   0.000   0.000  -0.000
   22        0.000   0.002   0.000   0.002
   23        0.000   0.002   0.000   0.002
   24        0.000   0.003   0.000   0.003
   25        0.000   0.001   0.000   0.001
   26        0.019   0.226   0.000   0.245
   27        0.000   0.003   0.000   0.004
   28        0.000   0.001   0.000   0.001
   29       -0.000  -0.000   0.000  -0.000
   30        0.000   0.001   0.000   0.001
   31        0.000   0.005   0.000   0.005
   32        0.001   0.009   0.000   0.010
   33        0.000   0.003   0.000   0.003
   34       -0.000  -0.000   0.000  -0.000
   35        0.001   0.004   0.000   0.005
   36       -0.000   0.000   0.000   0.000
   37       -0.000   0.002   0.000   0.002
   38       -0.000   0.000   0.000   0.000
   39        0.000   0.006   0.000   0.006
   40        0.003   0.024   0.000   0.027
   41        0.000   0.000   0.000   0.000
   42        0.000   0.002   0.000   0.003
   43        0.000   0.001   0.000   0.001
   44       -0.000   0.000   0.000   0.000
   45        0.000   0.001   0.000   0.001
   46       -0.000   0.000   0.000  -0.000
   47        0.001   0.008   0.000   0.008
   48       -0.000  -0.000   0.000  -0.000
   49        0.000   0.000   0.000   0.000
   50        0.000   0.001   0.000   0.001
   51        0.000   0.001   0.000   0.001
   52        0.000   0.002   0.000   0.002
   53       -0.000   0.000   0.000   0.000
   54        0.000   0.001   0.000   0.001
   55       -0.000   0.000   0.000   0.000
   56       -0.000   0.000   0.000   0.000
   57        0.000   0.017   0.000   0.018
   58       -0.000  -0.000   0.000  -0.001
   59       -0.000   0.000   0.000   0.000
   60       -0.000  -0.000   0.000  -0.001
[...]
  201        0.000   0.002   0.000   0.003
  202       -0.000   0.000   0.000   0.000
  203        0.000   0.002   0.000   0.002
  204       -0.000   0.000   0.000   0.000
  205       -0.000   0.000   0.000   0.000
  206       -0.000   0.000   0.000   0.000
  207        0.000   0.005   0.000   0.006
  208        0.001   0.011   0.000   0.013
  209       -0.000   0.000   0.000   0.000
  210       -0.000   0.000   0.000   0.000
  211        0.000   0.002   0.000   0.002
  212       -0.000   0.000   0.000   0.000
  213       -0.002  -0.002   0.000  -0.004
  214       -0.000  -0.001   0.000  -0.001
  215       -0.000   0.000   0.000   0.000
tot          0.086   1.281   0.000   1.367