 vasp.6.4.3 19Mar24 (build Jun 20 2024 15:24:57) gamma-only
 executed on    LinuxNV_CrayMPICH date 2025.04.26  08:34:13
 OpenACC runtime initialized ...   16 GPUs detected

 INCAR:
   ALGO = A
   ISTART = 1
   EDIFF = 1e-5
   EDIFFG = -0.01
   ENCUT = 400
   IBRION = 2
   ICHARG = 2
   ISIF = 2
   ISMEAR = 0
   ISPIN = 2
   LORBIT = 11
   LREAL = Auto
   LWAVE = True
   MAGMOM = 215*0.6
   NUPDOWN = 2
   NELM = 100
   NSW = 99
   PREC = Accurate
   PRECFOCK = Fast
   HFSCREEN = 0.2
   LHFCALC = True
   SIGMA = 0.05
   NBANDS = 450

 POTCAR:   PAW_PBE Si 05Jan2001
 POTCAR:   PAW_PBE C 08Apr2002
 POTCAR:   PAW_PBE Si 05Jan2001
   VRHFIN =Si: s2p2

   TITEL  = PAW_PBE Si 05Jan2001
   POMASS =   28.085; ZVAL   =    4.000    mass and valenz
   ENMAX  =  245.345; ENMIN  =  184.009 eV
   QCUT   =   -4.246; QGAM   =    8.493    optimization parameters

   Description
     l     E      TYP  RCUT    TYP  RCUT
     0   .000     23  1.900
     0   .000     23  1.900
     1   .000     23  1.900
     1   .000     23  1.900
     2   .000      7  1.900

 POTCAR:   PAW_PBE C 08Apr2002
   VRHFIN =C: s2p2

   TITEL  = PAW_PBE C 08Apr2002
   POMASS =   12.011; ZVAL   =    4.000    mass and valenz
   ENMAX  =  400.000; ENMIN  =  300.000 eV
   QCUT   =   -5.516; QGAM   =   11.032    optimization parameters

   Description
     l     E      TYP  RCUT    TYP  RCUT
     0   .000     23  1.200
     0   .000     23  1.200
     1   .000     23  1.500
     1  2.500     23  1.500
     2   .000      7  1.500

 Optimization of the real space projectors (new method)

 maximal supplied QI-value         = 19.84
 optimisation between [QCUT,QGAM] = [ 10.12, 20.44] = [ 28.68,116.96] Ry
 Optimized for a Real-space Cutoff    1.38 Angstroem

   l    n(q)    QCUT    max X(q) W(low)/X(q) W(high)/X(q)  e(spline)
   0      8    10.119     8.708    0.16E-04    0.67E-05    0.60E-08
   0      8    10.119   106.241    0.56E-04    0.11E-03    0.54E-07
   1      8    10.119     5.901    0.16E-04    0.16E-05    0.22E-07
   1      8    10.119    73.241    0.22E-03    0.17E-03    0.18E-06
 Optimization of the real space projectors (new method)

 maximal supplied QI-value         = 25.13
 optimisation between [QCUT,QGAM] = [ 10.05, 20.36] = [ 28.30,116.06] Ry
 Optimized for a Real-space Cutoff    1.38 Angstroem

   l    n(q)    QCUT    max X(q) W(low)/X(q) W(high)/X(q)  e(spline)
   0      8    10.053     5.582    0.33E-04    0.15E-04    0.75E-07
   0      8    10.053    69.432    0.23E-03    0.38E-03    0.25E-06
   1      8    10.053     2.780    0.76E-04    0.11E-03    0.15E-06
   1      8    10.053     4.549    0.19E-03    0.19E-03    0.27E-06
 PAW_PBE Si 05Jan2001                   :
 PAW_PBE C 08Apr2002                    :

 POSCAR: Si1 C214
  positions in direct lattice
  velocities in cartesian coordinates

 exchange-correlation table for PE
   RHO(1)=    0.500       N(1)  =     2000
   RHO(2)=  100.500       N(2)  =     4000

 ion  position               nearest neighbor table
   1  0.500  0.500  0.500-  16 2.02  71 2.02 108 2.02 131 2.02 162 2.02 215 2.02
   2  0.041  0.041  0.875-  91 1.54 139 1.54  41 1.54 189 1.54
   3  0.042  0.042  0.208-  92 1.53 140 1.53  42 1.54 190 1.54
   4  0.042  0.042  0.542-  93 1.53 141 1.53 191 1.54  43 1.54
   5  0.041  0.375  0.876-  44 1.53 142 1.53 192 1.54  94 1.54
   6  0.043  0.375  0.209- 143 1.53  45 1.54  95 1.54 193 1.54
   7  0.042  0.375  0.542- 144 1.54 194 1.54  96 1.54  46 1.54
   8  0.041  0.708  0.875- 136 1.53  38 1.54  97 1.54 195 1.54
   9  0.042  0.709  0.208-  98 1.53  39 1.54 137 1.54 196 1.54
  10  0.041  0.708  0.542- 138 1.53 197 1.54  99 1.54  40 1.54
  11  0.375  0.041  0.876-  50 1.53 100 1.53 198 1.54 148 1.54
  12  0.375  0.043  0.209- 101 1.53  51 1.54 149 1.54 199 1.54
  13  0.375  0.042  0.542- 102 1.54 200 1.54 150 1.54  52 1.54
  14  0.375  0.375  0.875-  53 1.54 201 1.54 151 1.54 103 1.54
  15  0.377  0.377  0.210-  54 1.53 104 1.54 152 1.54 202 1.55
  16  0.371  0.371  0.552- 105 1.50 153 1.50 203 1.51   1 2.02
  17  0.374  0.708  0.875- 145 1.53 204 1.54 106 1.54  47 1.54
  18  0.375  0.711  0.206- 107 1.52  48 1.53 205 1.54 146 1.54
  19  0.372  0.710  0.543- 108 1.50 147 1.52 206 1.54  49 1.55
  20  0.708  0.041  0.875-  82 1.53  32 1.54 157 1.54 207 1.54
  21  0.709  0.042  0.208- 158 1.53  33 1.54  83 1.54 208 1.54
  22  0.708  0.041  0.542-  84 1.53 209 1.54 159 1.54  34 1.54
  23  0.708  0.374  0.875-  85 1.53 210 1.54 160 1.54  35 1.54
  24  0.711  0.375  0.206- 161 1.52  36 1.53 211 1.54  86 1.54
  25  0.710  0.372  0.543- 162 1.50  87 1.52 212 1.54  37 1.55
  26  0.707  0.707  0.873-  29 1.53  88 1.54 154 1.54 213 1.55
  27  0.709  0.709  0.207-  30 1.53 214 1.54 155 1.54  89 1.54
  28  0.706  0.706  0.539- 215 1.51 156 1.54  90 1.54  31 1.55
  29  0.791  0.791  0.791-  26 1.53  75 1.53 117 1.53 163 1.54
  30  0.792  0.792  0.124-  27 1.53  73 1.54 115 1.54 164 1.54
  31  0.792  0.792  0.458- 165 1.53 116 1.54  74 1.54  28 1.55
  32  0.792  0.124  0.792-  78 1.53  20 1.54 111 1.54 166 1.54
  33  0.792  0.125  0.125-  21 1.54  76 1.54 109 1.54 167 1.54
  34  0.793  0.124  0.458-  77 1.53 110 1.53 168 1.54  22 1.54
  35  0.792  0.458  0.792- 169 1.53 114 1.54  23 1.54  81 1.55
  36  0.793  0.458  0.124-  24 1.53 112 1.53 170 1.54  79 1.54
  37  0.792  0.458  0.458- 171 1.53 113 1.54  25 1.55  80 1.55
  38  0.124  0.792  0.792- 126 1.53  57 1.54   8 1.54 172 1.54
  39  0.125  0.792  0.125-   9 1.54 124 1.54  55 1.54 173 1.54
  40  0.124  0.793  0.458- 125 1.53  56 1.53 174 1.54  10 1.54
  41  0.125  0.125  0.792-  60 1.54 120 1.54   2 1.54 175 1.54
  42  0.126  0.126  0.126-   3 1.54  58 1.54 118 1.54 176 1.54
  43  0.125  0.125  0.459- 177 1.53 119 1.54  59 1.54   4 1.54
  44  0.124  0.458  0.793- 123 1.53   5 1.53 178 1.54  63 1.54
  45  0.125  0.459  0.125- 179 1.53 121 1.54   6 1.54  61 1.54
  46  0.126  0.459  0.459- 180 1.53 122 1.53   7 1.54  62 1.54
  47  0.458  0.792  0.792- 181 1.53  66 1.54  17 1.54 135 1.55
  48  0.458  0.793  0.124-  18 1.53  64 1.53 182 1.54 133 1.54
  49  0.458  0.792  0.458- 183 1.53  65 1.54 134 1.55  19 1.55
  50  0.458  0.124  0.793-  69 1.53  11 1.53 184 1.54 129 1.54
  51  0.459  0.125  0.125- 185 1.53  67 1.54  12 1.54 127 1.54
  52  0.459  0.126  0.459- 186 1.53  68 1.53  13 1.54 128 1.54
  53  0.458  0.458  0.792- 187 1.53  14 1.54 132 1.55  72 1.55
  54  0.459  0.459  0.126- 188 1.53  15 1.53 130 1.54  70 1.54
  55  0.041  0.875  0.041-  91 1.54 190 1.54  39 1.54 136 1.54
  56  0.041  0.876  0.375-  40 1.53 191 1.53 137 1.54  92 1.54
  57  0.041  0.875  0.708- 189 1.53  38 1.54  93 1.54 138 1.54
  58  0.042  0.208  0.042-  94 1.53 193 1.53  42 1.54 139 1.54
  59  0.043  0.209  0.375- 194 1.53  43 1.54  95 1.54 140 1.54
  60  0.042  0.208  0.709-  96 1.53  41 1.54 192 1.54 141 1.54
[...]
 201  0.291  0.291  0.793- 175 1.53  14 1.54 123 1.54  69 1.54
 202  0.293  0.293  0.127- 176 1.53 121 1.54  67 1.54  15 1.55
 203  0.294  0.294  0.461-  16 1.51  68 1.54 122 1.54 177 1.55
 204  0.289  0.625  0.794-  72 1.52 178 1.53  17 1.54 126 1.54
 205  0.292  0.626  0.125- 124 1.53  18 1.54  70 1.54 179 1.54
 206  0.290  0.628  0.457-  71 1.50 125 1.52  19 1.54 180 1.55
 207  0.625  0.957  0.791- 129 1.53 181 1.54  75 1.54  20 1.54
 208  0.625  0.959  0.124- 182 1.53 127 1.53  21 1.54  73 1.54
 209  0.625  0.958  0.458- 128 1.54  22 1.54  74 1.54 183 1.54
 210  0.625  0.289  0.794- 132 1.52 184 1.53  23 1.54  78 1.54
 211  0.626  0.292  0.125-  76 1.53  24 1.54 130 1.54 185 1.54
 212  0.628  0.290  0.457- 131 1.50  77 1.52  25 1.54 186 1.55
 213  0.623  0.623  0.790- 187 1.53 135 1.54  81 1.54  26 1.55
 214  0.625  0.625  0.125- 188 1.54  27 1.54 133 1.54  79 1.54
 215  0.629  0.629  0.448- 134 1.50  80 1.50  28 1.51   1 2.02

  LATTYP: Found a simple cubic cell.
 ALAT       =    10.6460610000

  Lattice vectors:

 A1 = (  10.6460610000,   0.0000000000,   0.0000000000)
 A2 = (   0.0000000000,  10.6460610000,   0.0000000000)
 A3 = (   0.0000000000,   0.0000000000,  10.6460610000)

Analysis of symmetry for initial positions (statically):
 Subroutine PRICEL returns:
 Original cell was already a primitive cell.

 Routine SETGRP: Setting up the symmetry group for a
 simple cubic supercell.

 Subroutine GETGRP returns: Found 12 space group operations
 (whereof 12 operations were pure point group operations)
 out of a pool of 48 trial point group operations.

The static configuration has the point symmetry D_3d.

Analysis of symmetry for dynamics (positions and initial velocities):
 Subroutine PRICEL returns:
 Original cell was already a primitive cell.

[...]

The dynamic configuration has the point symmetry D_3d.

Analysis of structural, dynamic, and magnetic symmetry:
 Subroutine PRICEL returns:
 Original cell was already a primitive cell.

 Routine SETGRP: Setting up the symmetry group for a
 simple cubic supercell.

 Subroutine GETGRP returns: Found 12 space group operations
 (whereof 12 operations were pure point group operations)
 out of a pool of 48 trial point group operations.

The overall configuration has the point symmetry D_3d.

 Subroutine INISYM returns: Found 12 space group operations
 (whereof 12 operations are pure point group operations),
 and found     1 'primitive' translations

                                     Primitive cell

  volume of cell :    1206.6098

  direct lattice vectors                    reciprocal lattice vectors
    10.646061000  0.000000000  0.000000000     0.093931455  0.000000000  0.000000000
     0.000000000 10.646061000  0.000000000     0.000000000  0.093931455  0.000000000
     0.000000000  0.000000000 10.646061000     0.000000000  0.000000000  0.093931455

  length of vectors
    10.646061000 10.646061000 10.646061000     0.093931455  0.093931455  0.093931455

  position of ions in fractional coordinates (direct lattice)
     0.500000000  0.500000000  0.500000000
     0.041486899  0.041486899  0.875120196
     0.042112479  0.042112479  0.208427813
     0.041610038  0.041610038  0.541814990
     0.041267179  0.374842393  0.875846551
     0.042612778  0.375338945  0.208812072
     0.041888942  0.375053454  0.541935711
     0.040847836  0.708234333  0.874753765
     0.041575648  0.708739826  0.207919906
     0.041016701  0.708484046  0.541522925
     0.374842393  0.041267179  0.875846551
     0.375338945  0.042612778  0.208812072
     0.375053454  0.041888942  0.541935711
     0.374925432  0.374925432  0.875496431
     0.376632339  0.376632339  0.210414882
     0.370703316  0.370703316  0.552158197
     0.374164063  0.708402194  0.875307338
     0.375186850  0.710654269  0.206251464
     0.371779497  0.710429859  0.542642725
     0.708234333  0.040847836  0.874753765
     0.708739826  0.041575648  0.207919906
     0.708484046  0.041016701  0.541522925
     0.708402194  0.374164063  0.875307338
     0.710654269  0.375186850  0.206251464
     0.710429859  0.371779497  0.542642725
     0.707268495  0.707268495  0.873448651
     0.708699386  0.708699386  0.207207223
     0.706324335  0.706324335  0.538743955
     0.790699009  0.790699009  0.790699009
     0.791709272  0.791709272  0.124097379
     0.791640429  0.791640429  0.457702919
     0.791709272  0.124097379  0.791709272
[...]
 lapack                                  0.834331         941
 rpro_isp                                0.778924         465
 fftext_mpi                              0.774050       47863
 m_alltoallv_z                           0.726639        9469
 stufak                                  0.717753          15
 pw_charge_trace_mu_acc                  0.655056      122310
 calc_dllmm_trans_and_overl_foc          0.648740      116640
 orthch                                  0.640570         255
 soft_charge_sym                         0.631878         255
 vhamil_trace_mu_acc                     0.625615      116640
 elmin_all                               0.580412          15
 sphpro_fast                             0.563236          16
 reduce                                  0.481012        4320
 fftbas_plan_mpi                         0.458581        8417
 choleski                                0.437506         512
 m_bcast_d                               0.435313        3395
 map_gather                              0.427024        9469
 eddav                                   0.420769           5
 depsum_sym                              0.366555         255
 overl                                   0.353588        9600
 pw_charge                               0.345815       13770
 overl1                                  0.334419       15660
 orth1                                   0.334381       18333
 fftwav_mpi                              0.292224      195844
 contraction                             0.265786       51030
 fock_force                              0.265168          15
 rsp                                     0.249449          15
 m_ibcast_d_from                         0.248791      379860
 wfinit                                  0.208085           1
 rad_pot                                 0.197001        7452
 w1_dot                                  0.194085        7018
 m_ibcast_z_from                         0.184307      263490
 fock_charge_mu                          0.171227      122310
 force_and_stress                        0.169194          15
 m_ireduce_d_to                          0.161585      250560
 m_ireduce_z_to                          0.160570      250560
 vhamil                                  0.147315        9583
 proall                                  0.131001          15
 kinhamil                                0.126979        9583
 m_bcast_z                               0.126019         928
 raccmu_                                 0.112356         941
 fock_set_gfac_vkpt                      0.079284        4320
 fftwav_w1                               0.066361      162784
 fock_set_fsg_der                        0.062936          15
 wavpre_noio                             0.061287          14
 fft_gq                                  0.058694         255
 w1_dscal                                0.055668        6960
 hamilt_local                            0.055199        8642
 map_backward                            0.055053        8904
 acc_init_cublas                         0.052787           1
 map_forward                             0.052638        7930
 set_charge                              0.049990         255
 pw_charge_trace_mu                      0.049425      122310
 wrk_deallocate                          0.045341          15
 depsum_two_bands_rholm_trace_m          0.044150      122310
 pothar                                  0.042456         271
 fock_set_fsg                            0.040312          15
 apply_gfac_der_mu                       0.033190        5670
 rad_proj                                0.029490       14880
 acc_init_cusolver                       0.027225           1
 racc0mu_acc                             0.026352         941
 apply_gfac_weight_mu                    0.025631        5670
 hamiltmu                                0.025284         941
 strnlr                                  0.024163          15
 densta                                  0.022210         266
 strelo                                  0.021154          15
 bandgap                                 0.017923          15
 ggemm                                   0.017202        1231
 overl_mu                                0.015122         941
 strehar                                 0.014705          15
 fock_ace_acc_apply                      0.014278         178
 rad_pot_weight                          0.013005        7444
 m_max_i                                 0.012166         300
 fock_set_gfac_der                       0.011606         210
 inisym                                  0.011385           1
 setup_precond                           0.010929         290
 phaser                                  0.008360        1015
 forloc                                  0.008181          15
 strkin                                  0.008011          15
 fornlr                                  0.007670          15
 newband                                 0.007189         951
 waitred                                 0.006893        4320
 rcp                                     0.005938          15
 rad_aug_charge                          0.005781        7438
 waitgth                                 0.005736        4320
 fftbrc_mpi                              0.005451        8417
 rad_gga_xc                              0.005121          16
 rprolat_der                             0.005065          30
 apply_precond                           0.004835         651
 rad_lda_xc                              0.004788          16
 rad_aug_proj                            0.004543        7440
 forhar                                  0.003335          15
 rproxyz                                 0.002809          30
 posmap                                  0.002766           2
 fewald                                  0.002625          15
 splcof                                  0.002069          55
 fordep                                  0.001582          15
 w1_daxpy                                0.001240         178
 redis_pw_all                            0.000839         240
 splval                                  0.000764        5326
 w1_projall                              0.000732         651
 fock_ace_construct                      0.000569           1
 phaser_hf                               0.000409        4320
 redis_pw_over_bands                     0.000156         269
 truncate_high_frequency_w1              0.000150        1231
 set_dd_magatom                          0.000122          30
 brgrid                                  0.000087           1
 crpa_reader                             0.000031           1
 acc_cufft_makeplans                     0.000031           5
 shift_bands_between_low_high            0.000015          58
 vectorpot                               0.000005           1
 rotate_active_occupied_orbital          0.000004          15
 kpar_sync_all                           0.000002          15
  summed up times     549.9296908378601

 Accumulative profile

 total_time                            549.929691           1
 elmin_all                             400.000938          15
 fock_all_dblbuf                       207.972017         270
 fock_fwd                              155.883005        4320
 potlok                                132.582293         271
 edwav                                 127.678425         240
 eddiag                                119.150305         149
 force_and_stress                       90.005193          15
 fock_force                             63.650676          15
 fft3d                                  52.861524      319847
 fftwav_mpi                             51.580166      195844
 fftwav                                 51.287942      195844
 fftwav_w1                              47.841077      162784
 fft3d_mpi                              39.282206      132420
 set_dd_paw                             37.755683         286
 fock_bck                               35.569524        4320
 rspher_all                             35.156410         676
 fftbrc_mpi                             32.650908        8417
 fftbas_plan_mpi                        32.645457        8417
 map_scatter                            30.072179        9469
 map_backward                           29.884955        8904
 rad_pot                                26.186630        7452
 dllmm_trans_eccp_nl_fock               20.800693       51030
 m_sumb_d                               20.621594       37236
 rad_lda_xc_spin                        19.623679        7436
 rprolat_der                            14.899581          30
 strnlr                                 11.394720          15
 set_charge                             10.882507         255
 fft_and_gather                         10.600325        4530
 batched_fft                             9.098045      243000
 acc_cufft_makeplan                      8.527485         297
 rproxyz                                 8.165645          30
 soft_charge_sym                         8.051270         255
 redis_pw                                7.497383       33813
 potxc                                   7.307205          15
 rad_gga_xc_spin                         6.356040        7436
 orthch                                  5.315189         255
 redis_proj                              4.894354       29628
 m_alltoall_d                            4.456414      258489
 fft3d_mu                                4.202409      233280
 fftext_mpi                              4.011106       47863
 rpro_isp                                3.812304         465
 fornlr                                  3.788682          15
 fock_charge_mu                          3.545654      122310
 setdij_                                 3.189664         662
 eddav                                   3.178156           5
 init_acc                                3.056102           1
 rpromu_hf_acc                           2.938925      173340
 eccp                                    2.870197       28130
 augmentation_charge                     2.070314         255
 setwdes                                 1.739915      131811
 racc0mu_hf_acc                          1.590194      122310
 map_forward                             1.448578        7930
 wrk_allocate                            1.275556          15
 fft_gq                                  1.177445         255
 depsum_two_bands_rholm_trace_m          1.079751      122310
 depsum_two_bands_rholm_trace_m          1.035601      122310
 hamilt_local                            1.006627        8642
 w1_copy                                 0.992857      170221
 racc0_acc                               0.979380       22620
 rpromu_acc                              0.964808        5931
 lincom                                  0.960375        1540
 apply_gfac_exchange_mu_acc              0.919249      116640
 set_rsgf_all                            0.902110         286
 rpro1_acc                               0.858511        6960
 kinhamil                                0.855563        9583
 dfftw_execute                           0.853343        4215
 lapack                                  0.834331         941
 reduce                                  0.803167        4320
 redis_pw_over_bands                     0.768167         269
 redis_pw_all                            0.768011         240
 wavpre_noio                             0.733345          14
 m_alltoallv_z                           0.726639        9469
 stufak                                  0.717753          15
 depsum_sym                              0.710932         255
 pw_charge_trace_mu                      0.704481      122310
 pw_charge_trace_mu_acc                  0.655056      122310
 calc_dllmm_trans_and_overl_foc          0.648740      116640
 vhamil_trace_mu_acc                     0.625615      116640
 sphpro_fast                             0.611225          16
 acc_cufft_makeplans                     0.510751           5
 choleski                                0.437506         512
 m_bcast_d                               0.435313        3395
 map_gather                              0.427024        9469
 fordep                                  0.400420          15
 overl                                   0.353588        9600
 pw_charge                               0.345815       13770
 overl1                                  0.334419       15660
 wfinit                                  0.334396           1
 orth1                                   0.334381       18333
 fewald                                  0.285714          15
 proall                                  0.266142          15
 contraction                             0.265786       51030
 densta                                  0.265229         266
 rsp                                     0.249449          15
 m_ibcast_d_from                         0.248791      379860
 hamiltmu                                0.230565         941
 w1_dot                                  0.194085        7018
 m_ibcast_z_from                         0.184307      263490
 m_ireduce_d_to                          0.161585      250560
 m_ireduce_z_to                          0.160570      250560
 raccmu_                                 0.153830         941
 vhamil                                  0.147315        9583
 m_bcast_z                               0.126019         928
 newband                                 0.114322         951
 fock_set_gfac_vkpt                      0.079694        4320
 fock_ace_acc_apply                      0.077313         178
 fock_set_fsg_der                        0.062936          15
 w1_dscal                                0.055668        6960
 pothar                                  0.053193         271
 acc_init_cublas                         0.052787           1
 wrk_deallocate                          0.045341          15
 fock_set_fsg                            0.040312          15
 apply_gfac_der_mu                       0.033190        5670
 rad_proj                                0.029490       14880
 acc_init_cusolver                       0.027225           1
 strelo                                  0.026958          15
 racc0mu_acc                             0.026352         941
 apply_gfac_weight_mu                    0.025631        5670
 fock_ace_construct                      0.021409           1
 strehar                                 0.018557          15
 bandgap                                 0.017923          15
 ggemm                                   0.017202        1231
 w1_projall                              0.015991         651
 overl_mu                                0.015122         941
 inisym                                  0.014151           1
 rad_pot_weight                          0.013005        7444
 m_max_i                                 0.012166         300
 fock_set_gfac_der                       0.011606         210
 setup_precond                           0.010929         290
 strkin                                  0.010265          15
 forloc                                  0.010113          15
 phaser                                  0.008360        1015
 waitred                                 0.006893        4320
 rcp                                     0.005938          15
 rad_aug_charge                          0.005781        7438
 waitgth                                 0.005736        4320
 forhar                                  0.005526          15
 rad_gga_xc                              0.005121          16
 apply_precond                           0.004835         651
 rad_lda_xc                              0.004788          16
 rad_aug_proj                            0.004543        7440
 posmap                                  0.002766           2
 splcof                                  0.002069          55
 w1_daxpy                                0.001240         178
 brgrid                                  0.000788           1
 splval                                  0.000764        5326
 phaser_hf                               0.000409        4320
 truncate_high_frequency_w1              0.000150        1231
 set_dd_magatom                          0.000122          30
 crpa_reader                             0.000031           1
 shift_bands_between_low_high            0.000015          58
 vectorpot                               0.000005           1
 rotate_active_occupied_orbital          0.000004          15
 kpar_sync_all                           0.000002          15

Profiling took   0.739086  0.393235  0.003593  0.003517 seconds
Profiling took   0.447703 seconds