 vasp.5.4.4.18Apr17-6-g9f103f2a35 (build Dec 19 2024 10:44:08) gamma-only
 executed on NVIDIA22.7_CrayMPICH date 2025.05.06  16:32:35

 INCAR:
 POTCAR:   PAW_PBE Si 05Jan2001
 POTCAR:   PAW_PBE C 08Apr2002
 POTCAR:   PAW_PBE Si 05Jan2001
   VRHFIN =Si: s2p2

   TITEL  = PAW_PBE Si 05Jan2001
   POMASS =   28.085; ZVAL   =    4.000    mass and valenz
   ENMAX  =  245.345; ENMIN  =  184.009 eV
   QCUT   =   -4.246; QGAM   =    8.493    optimization parameters

   Description
     l     E      TYP  RCUT    TYP  RCUT
     0   .000     23  1.900
     0   .000     23  1.900
     1   .000     23  1.900
     1   .000     23  1.900
     2   .000      7  1.900

 POTCAR:   PAW_PBE C 08Apr2002
   VRHFIN =C: s2p2

   TITEL  = PAW_PBE C 08Apr2002
   POMASS =   12.011; ZVAL   =    4.000    mass and valenz
   ENMAX  =  400.000; ENMIN  =  300.000 eV
   QCUT   =   -5.516; QGAM   =   11.032    optimization parameters

   Description
     l     E      TYP  RCUT    TYP  RCUT
     0   .000     23  1.200
     0   .000     23  1.200
     1   .000     23  1.500
     1  2.500     23  1.500
     2   .000      7  1.500

 Optimization of the real space projectors (new method)

 maximal supplied QI-value         = 19.84
 optimisation between [QCUT,QGAM] = [ 10.12, 20.44] = [ 28.68,116.96] Ry
 Optimized for a Real-space Cutoff    1.38 Angstroem

   l    n(q)    QCUT    max X(q) W(low)/X(q) W(high)/X(q)  e(spline)
   0      8    10.119     8.708    0.16E-04    0.67E-05    0.60E-08
   0      8    10.119   106.241    0.56E-04    0.11E-03    0.54E-07
   1      8    10.119     5.901    0.16E-04    0.16E-05    0.22E-07
   1      8    10.119    73.241    0.22E-03    0.17E-03    0.18E-06
 Optimization of the real space projectors (new method)

 maximal supplied QI-value         = 25.13
 optimisation between [QCUT,QGAM] = [ 10.05, 20.36] = [ 28.30,116.06] Ry
 Optimized for a Real-space Cutoff    1.38 Angstroem

   l    n(q)    QCUT    max X(q) W(low)/X(q) W(high)/X(q)  e(spline)
   0      8    10.053     5.582    0.33E-04    0.15E-04    0.75E-07
   0      8    10.053    69.432    0.23E-03    0.38E-03    0.25E-06
   1      8    10.053     2.780    0.76E-04    0.11E-03    0.15E-06
   1      8    10.053     4.549    0.19E-03    0.19E-03    0.27E-06
 PAW_PBE Si 05Jan2001                   :
 PAW_PBE C 08Apr2002                    :

 POSCAR: Si1 C214
  positions in direct lattice
  velocities in cartesian coordinates
 exchange correlation table for  LEXCH =        8
   RHO(1)=    0.500       N(1)  =     2000
   RHO(2)=  100.500       N(2)  =     4000

 ion  position               nearest neighbor table
   1  0.500  0.500  0.500- 108 1.98 131 1.98  16 1.98  71 1.98 162 1.98 215 1.98
   2  0.041  0.041  0.875-  91 1.54 139 1.54  41 1.54 189 1.54
   3  0.042  0.042  0.208-  92 1.53 140 1.53  42 1.54 190 1.54
   4  0.042  0.042  0.542-  93 1.53 141 1.53 191 1.54  43 1.54
   5  0.041  0.375  0.876-  44 1.53 142 1.53 192 1.54  94 1.54
   6  0.043  0.375  0.209- 143 1.53  45 1.53  95 1.54 193 1.54
   7  0.042  0.375  0.542- 144 1.53 194 1.54  96 1.54  46 1.54
   8  0.041  0.708  0.875- 136 1.53  38 1.53  97 1.54 195 1.54
   9  0.042  0.709  0.208-  39 1.54 137 1.54  98 1.54 196 1.54
  10  0.041  0.709  0.542- 138 1.53 197 1.54  99 1.54  40 1.54
  11  0.375  0.041  0.876-  50 1.53 100 1.53 198 1.54 148 1.54
  12  0.375  0.043  0.209- 101 1.53  51 1.53 149 1.54 199 1.54
  13  0.375  0.042  0.542- 102 1.53 200 1.54 150 1.54  52 1.54
  14  0.375  0.375  0.876-  53 1.53 201 1.54 151 1.54 103 1.54
  15  0.377  0.377  0.211-  54 1.53 104 1.54 152 1.54 202 1.55
  16  0.374  0.374  0.552- 105 1.51 153 1.51 203 1.54   1 1.98
  17  0.374  0.708  0.875- 204 1.53  47 1.54 145 1.54 106 1.54
  18  0.375  0.711  0.206- 107 1.53  48 1.53 205 1.53 146 1.54
  19  0.371  0.711  0.542- 108 1.51 206 1.52 147 1.53  49 1.55
  20  0.708  0.041  0.875-  82 1.53  32 1.53 157 1.54 207 1.54
  21  0.709  0.042  0.208-  33 1.54  83 1.54 158 1.54 208 1.54
  22  0.709  0.041  0.542-  84 1.53 209 1.54 159 1.54  34 1.54
  23  0.708  0.374  0.875- 210 1.53  35 1.54  85 1.54 160 1.54
  24  0.711  0.375  0.206- 161 1.53  36 1.53 211 1.53  86 1.54
  25  0.711  0.371  0.542- 162 1.51 212 1.52  87 1.53  37 1.55
  26  0.707  0.707  0.873-  29 1.53  88 1.54 154 1.54 213 1.55
  27  0.709  0.709  0.207-  30 1.53 214 1.54 155 1.54  89 1.54
  28  0.705  0.705  0.539- 215 1.54 156 1.54  90 1.54  31 1.56
  29  0.791  0.791  0.791-  26 1.53  75 1.53 117 1.53 163 1.54
  30  0.792  0.792  0.124-  27 1.53  73 1.53 115 1.53 164 1.54
  31  0.791  0.791  0.457-  74 1.54 116 1.54 165 1.54  28 1.56
  32  0.792  0.124  0.792-  78 1.53  20 1.53 111 1.53 166 1.54
  33  0.792  0.125  0.125-  21 1.54  76 1.54 109 1.54 167 1.54
  34  0.793  0.124  0.458-  77 1.53 110 1.53 168 1.54  22 1.54
  35  0.791  0.457  0.791-  23 1.54 114 1.54 169 1.54  81 1.56
  36  0.793  0.458  0.124-  24 1.53 112 1.53 170 1.54  79 1.54
  37  0.792  0.458  0.458- 171 1.53 113 1.53  25 1.55  80 1.55
  38  0.124  0.792  0.792- 126 1.53  57 1.53   8 1.53 172 1.54
  39  0.125  0.792  0.125-   9 1.54 124 1.54  55 1.54 173 1.54
  40  0.124  0.793  0.458- 125 1.53  56 1.53 174 1.54  10 1.54
  41  0.125  0.125  0.792-  60 1.54 120 1.54   2 1.54 175 1.54
  42  0.126  0.126  0.126-   3 1.54  58 1.54 118 1.54 176 1.54
  43  0.126  0.126  0.459-  59 1.53 119 1.53 177 1.54   4 1.54
  44  0.124  0.458  0.793- 123 1.53   5 1.53 178 1.54  63 1.54
  45  0.126  0.459  0.126-   6 1.53 121 1.53 179 1.54  61 1.54
  46  0.125  0.459  0.459- 180 1.53 122 1.53   7 1.54  62 1.54
  47  0.457  0.791  0.791-  17 1.54  66 1.54 181 1.54 135 1.56
  48  0.458  0.793  0.124-  18 1.53  64 1.53 182 1.54 133 1.54
  49  0.458  0.792  0.458- 183 1.53  65 1.53 134 1.55  19 1.55
  50  0.458  0.124  0.793-  69 1.53  11 1.53 184 1.54 129 1.54
  51  0.459  0.126  0.126-  12 1.53  67 1.53 185 1.54 127 1.54
  52  0.459  0.125  0.459- 186 1.53  68 1.53  13 1.54 128 1.54
  53  0.458  0.458  0.792- 187 1.53  14 1.53 132 1.55  72 1.55
  54  0.459  0.459  0.125- 188 1.53  15 1.53  70 1.54 130 1.54
  55  0.041  0.875  0.041-  91 1.54 190 1.54  39 1.54 136 1.54
  56  0.041  0.876  0.375-  40 1.53 191 1.53 137 1.54  92 1.54
  57  0.041  0.875  0.708- 189 1.53  38 1.53  93 1.54 138 1.54
  58  0.042  0.208  0.042-  94 1.53 193 1.53  42 1.54 139 1.54
  59  0.043  0.209  0.375- 194 1.53  43 1.53  95 1.54 140 1.54
  60  0.042  0.208  0.709-  41 1.54 192 1.54  96 1.54 141 1.54
[...]
 201  0.291  0.291  0.793- 175 1.53  14 1.54 123 1.54  69 1.54
 202  0.293  0.293  0.127- 176 1.53 121 1.54  67 1.54  15 1.55
 203  0.295  0.295  0.461-  16 1.54  68 1.54 122 1.54 177 1.56
 204  0.289  0.625  0.794-  72 1.53 178 1.53  17 1.53 126 1.54
 205  0.292  0.626  0.125-  18 1.53 179 1.54 124 1.54  70 1.54
 206  0.289  0.629  0.458-  71 1.51  19 1.52 125 1.53 180 1.55
 207  0.625  0.957  0.791- 129 1.53 181 1.53  75 1.54  20 1.54
 208  0.625  0.959  0.124- 182 1.53 127 1.53  21 1.54  73 1.54
 209  0.625  0.958  0.458- 128 1.53  22 1.54  74 1.54 183 1.54
 210  0.625  0.289  0.794- 132 1.53 184 1.53  23 1.53  78 1.54
 211  0.626  0.292  0.125-  24 1.53 185 1.54  76 1.54 130 1.54
 212  0.629  0.289  0.458- 131 1.51  25 1.52  77 1.53 186 1.55
 213  0.623  0.623  0.789- 187 1.53 135 1.54  81 1.54  26 1.55
 214  0.625  0.625  0.124- 188 1.53  27 1.54 133 1.54  79 1.54
 215  0.626  0.626  0.448-  80 1.51 134 1.51  28 1.54   1 1.98

IMPORTANT INFORMATION: All symmetrisations will be switched off!
NOSYMM: (Re-)initialisation of all symmetry stuff for point group C_1.

 KPOINTS: pymatgen v1.1 with grid density = 2210 /

Automatic generation of k-mesh.
Space group operators:
 irot       det(A)        alpha          n_x          n_y          n_z        tau_x        tau_y        tau_z
    1     1.000000     0.000001     1.000000     0.000000     0.000000     0.000000     0.000000     0.000000

 Subroutine IBZKPT returns following result:

 Found      1 irreducible k-points:

 Following reciprocal coordinates:
            Coordinates               Weight
  0.000000  0.000000  0.000000      1.000000

 Following cartesian coordinates:
            Coordinates               Weight
  0.000000  0.000000  0.000000      1.000000

 Subroutine IBZKPT_HF returns following result:

 Found      1 k-points in 1st BZ
 the following      1 k-points will be used (e.g. in the exchange kernel)
 Following reciprocal coordinates:   # in IRBZ
  0.000000  0.000000  0.000000    1.00000000   1 t-inv F

 SYSTEM =  unknown system
 POSCAR =  Si1 C214

 Startparameter for this run:
   NWRITE =      2    write-flag & timer
   PREC   = accura    normal or accurate (medium, high low for compatibility)
   ISTART =      1    job   : 0-new  1-cont  2-samecut
   ICHARG =      2    charge: 1-file 2-atom 10-const
   ISPIN  =      2    spin polarized calculation?
   LNONCOLLINEAR =      F non collinear calculations
   LSORBIT =      F    spin-orbit coupling
   INIWAV =      1    electr: 0-lowe 1-rand  2-diag
   LASPH  =      F    aspherical Exc in radial PAW
   METAGGA=      F    non-selfconsistent MetaGGA calc.

 Electronic Relaxation 1
   ENCUT  =  400.0 eV  29.40 Ry    5.42 a.u.  17.36 17.36 17.36*2*pi/ulx,y,z
   ENINI  =  400.0     initial cutoff
   ENAUG  =  644.9 eV  augmentation charge cutoff
   NELM   =    100;   NELMIN=  2; NELMDL=  0     # of ELM steps
   EDIFF  = 0.1E-04   stopping-criterion for ELM
   LREAL  =      T    real-space projection
   NLSPLINE    = F    spline interpolate recip. space projectors
   LCOMPAT=      F    compatible to vasp.4.4
   GGA_COMPAT  = T    GGA compatible to vasp.4.4-vasp.4.6
   LMAXPAW     = -100 max onsite density
   LMAXMIX     =    2 max onsite mixed and CHGCAR
   VOSKOWN=      0    Vosko Wilk Nusair interpolation
   ROPT   =   -0.00025  -0.00025
 Ionic relaxation
   EDIFFG = -.1E-01   stopping-criterion for IOM
   NSW    =     99    number of steps for IOM
   NBLOCK =      1;   KBLOCK =     99    inner block; outer block
   IBRION =      1    ionic relax: 0-MD 1-quasi-New 2-CG
   NFREE  =      0    steps in history (QN), initial steepest desc. (CG)
   ISIF   =      2    stress and relaxation
   IWAVPR =     11    prediction:  0-non 1-charg 2-wave 3-comb
   ISYM   =      0    0-nonsym 1-usesym 2-fastsym
   LCORR  =      T    Harris-Foulkes like correction to forces

   POTIM  = 0.5000    time-step for ionic-motion
   TEIN   =    0.0    initial temperature
   TEBEG  =    0.0;   TEEND  =   0.0 temperature during run
   SMASS  =  -3.00    Nose mass-parameter (am)
   estimated Nose-frequenzy (Omega)   =  0.10E-29 period in steps =****** mass=  -0.259E-26a.u.
   SCALEE = 1.0000    scale energy and forces
   NPACO  =    256;   APACO  = 16.0  distance and # of slots for P.C.
   PSTRESS=    0.0 pullay stress

  Mass of Ions in am
   POMASS =  28.09 12.01
  Ionic Valenz
   ZVAL   =   4.00  4.00
  Atomic Wigner-Seitz radii
  virtual crystal weights
   VCA    =   1.00  1.00
   NELECT =     860.0000    total number of electrons
   NUPDOWN=       2.0000    fix difference up-down

 DOS related values:
   EMIN   =  10.00;   EMAX   =-10.00  energy-range for DOS
   EFERMI =   0.00
   ISMEAR =    -2;   SIGMA  =   0.05  broadening in eV -4-tet -1-fermi 0-gaus

 Electronic relaxation 2 (details)
[...]
   -.414E+01 -.426E+01 0.331E+01   0.422E+01 0.435E+01 -.332E+01   -.700E-01 -.885E-01 0.158E-02
   -.463E+01 -.196E+01 0.503E+01   0.460E+01 0.192E+01 -.510E+01   0.296E-01 0.361E-01 0.537E-01
   -.562E+01 -.386E+01 -.218E+02   0.603E+01 0.350E+01 0.221E+02   -.403E+00 0.338E+00 -.211E+00
   -.452E+02 -.369E+02 0.481E+02   0.486E+02 0.409E+02 -.521E+02   -.324E+01 -.380E+01 0.374E+01
   -.706E+01 0.194E+01 0.608E+01   0.707E+01 -.196E+01 -.633E+01   -.589E-02 0.115E-01 0.230E+00
   -.434E+01 0.529E+01 -.936E+01   0.426E+01 -.503E+01 0.910E+01   0.855E-01 -.255E+00 0.265E+00
   -.257E+02 0.206E+02 0.654E+01   0.262E+02 -.204E+02 -.587E+01   -.412E+00 -.185E+00 -.640E+00
   0.380E+01 0.134E+01 0.384E+01   -.387E+01 -.144E+01 -.386E+01   0.676E-01 0.959E-01 0.212E-01
   0.400E+01 -.825E+00 -.347E+01   -.407E+01 0.859E+00 0.354E+01   0.567E-01 -.322E-01 -.656E-01
   0.567E+01 -.709E+00 0.419E+00   -.571E+01 0.650E+00 -.461E+00   0.389E-01 0.596E-01 0.423E-01
   0.503E+01 -.488E+01 0.564E+01   -.509E+01 0.496E+01 -.549E+01   0.521E-01 -.705E-01 -.140E+00
   0.652E+01 0.178E+01 -.708E+01   -.677E+01 -.150E+01 0.728E+01   0.220E+00 -.268E+00 -.181E+00
   0.236E+02 -.213E+02 0.761E+01   -.232E+02 0.208E+02 -.848E+01   -.446E+00 0.529E+00 0.833E+00
   0.651E+01 0.426E+01 0.911E+01   -.656E+01 -.427E+01 -.921E+01   0.614E-01 0.111E-01 0.102E+00
   0.690E+01 0.339E+01 -.782E+01   -.686E+01 -.348E+01 0.804E+01   -.450E-01 0.808E-01 -.202E+00
   0.256E+02 0.212E+02 -.222E+01   -.264E+02 -.217E+02 0.194E+01   0.707E+00 0.457E+00 0.272E+00
   0.561E+01 0.332E+01 0.560E+01   -.567E+01 -.328E+01 -.565E+01   0.579E-01 -.306E-01 0.575E-01
   0.245E+01 0.554E-01 -.138E+01   -.251E+01 -.739E-01 0.142E+01   0.549E-01 0.163E-01 -.371E-01
   0.104E+02 0.750E+01 -.749E+01   -.108E+02 -.785E+01 0.784E+01   0.352E+00 0.339E+00 -.329E+00
   0.286E+01 -.258E+00 0.285E+01   -.279E+01 0.124E+00 -.278E+01   -.645E-01 0.132E+00 -.645E-01
   0.230E+01 -.979E+00 -.266E+01   -.231E+01 0.986E+00 0.273E+01   0.793E-02 -.305E-02 -.671E-01
   0.574E+01 -.210E+01 -.285E+01   -.586E+01 0.206E+01 0.273E+01   0.106E+00 0.449E-01 0.109E+00
   0.956E+01 -.654E+01 0.954E+01   -.939E+01 0.650E+01 -.937E+01   -.164E+00 0.430E-01 -.163E+00
   0.443E+01 -.320E+01 -.230E+01   -.449E+01 0.312E+01 0.245E+01   0.551E-01 0.862E-01 -.137E+00
   0.248E+02 -.571E+01 -.812E+01   -.251E+02 0.622E+01 0.773E+01   0.241E+00 -.488E+00 0.377E+00
   -.138E+01 0.504E-01 0.243E+01   0.143E+01 -.690E-01 -.249E+01   -.371E-01 0.164E-01 0.547E-01
   -.262E+01 -.117E+00 -.261E+01   0.262E+01 0.153E+00 0.261E+01   -.170E-02 -.387E-01 -.163E-02
   -.396E+01 0.313E+01 -.279E+01   0.381E+01 -.298E+01 0.296E+01   0.146E+00 -.155E+00 -.164E+00
   -.267E+01 -.981E+00 0.228E+01   0.274E+01 0.988E+00 -.229E+01   -.671E-01 -.294E-02 0.758E-02
   -.396E+01 -.262E+01 -.395E+01   0.401E+01 0.266E+01 0.400E+01   -.499E-01 -.354E-01 -.498E-01
   -.601E+01 -.399E+01 -.885E+00   0.613E+01 0.409E+01 0.985E+00   -.121E+00 -.972E-01 -.976E-01
   -.231E+01 -.319E+01 0.441E+01   0.246E+01 0.311E+01 -.448E+01   -.137E+00 0.856E-01 0.545E-01
   -.519E+01 0.891E+00 -.517E+01   0.505E+01 -.103E+01 0.504E+01   0.125E+00 0.133E+00 0.125E+00
   -.121E+02 0.983E+00 0.940E+00   0.122E+02 -.102E+01 -.929E+00   -.433E-01 0.291E-01 -.144E-01
   -.750E+01 0.750E+01 0.104E+02   0.786E+01 -.785E+01 -.108E+02   -.330E+00 0.340E+00 0.353E+00
   -.278E+01 0.314E+01 -.395E+01   0.296E+01 -.298E+01 0.381E+01   -.164E+00 -.154E+00 0.147E+00
   -.680E+01 0.237E+02 -.679E+01   0.699E+01 -.239E+02 0.697E+01   -.173E+00 0.268E+00 -.175E+00
   -.284E+01 -.211E+01 0.573E+01   0.272E+01 0.207E+01 -.585E+01   0.108E+00 0.453E-01 0.106E+00
   -.888E+00 -.400E+01 -.600E+01   0.989E+00 0.409E+01 0.613E+01   -.982E-01 -.978E-01 -.121E+00
   0.268E+00 -.112E+02 0.267E+00   -.373E+00 0.113E+02 -.372E+00   0.962E-01 -.764E-01 0.965E-01
   -.813E+01 -.570E+01 0.248E+02   0.774E+01 0.622E+01 -.251E+02   0.377E+00 -.489E+00 0.242E+00
   0.938E+00 0.978E+00 -.121E+02   -.928E+00 -.101E+01 0.122E+02   -.143E-01 0.295E-01 -.436E-01
   0.123E+00 0.685E+00 0.127E+00   -.177E+00 -.654E+00 -.181E+00   0.512E-01 -.337E-01 0.513E-01
   -.102E+01 0.380E+00 -.926E+00   0.935E+00 -.313E+00 0.889E+00   0.775E-01 -.705E-01 0.380E-01
   0.590E+00 0.198E+01 0.365E+01   -.581E+00 -.201E+01 -.368E+01   -.351E-02 0.263E-01 0.233E-01
   -.124E+01 0.744E+00 -.123E+01   0.126E+01 -.747E+00 0.125E+01   -.199E-01 0.382E-03 -.197E-01
   -.438E+01 -.261E+01 -.657E+00   0.444E+01 0.258E+01 0.665E+00   -.618E-01 0.305E-01 -.114E-01
   -.974E+00 -.613E+00 0.359E+01   0.109E+01 0.620E+00 -.370E+01   -.105E+00 -.375E-02 0.980E-01
[...]
   -.650E+01 -.426E+01 -.911E+01   0.656E+01 0.427E+01 0.921E+01   -.615E-01 -.110E-01 -.102E+00
   -.256E+02 -.212E+02 0.222E+01   0.264E+02 0.217E+02 -.195E+01   -.707E+00 -.457E+00 -.272E+00
   -.652E+01 -.179E+01 0.708E+01   0.677E+01 0.151E+01 -.729E+01   -.220E+00 0.268E+00 0.181E+00
   -.503E+01 0.487E+01 -.565E+01   0.509E+01 -.495E+01 0.550E+01   -.520E-01 0.706E-01 0.140E+00
   -.236E+02 0.213E+02 -.760E+01   0.232E+02 -.207E+02 0.847E+01   0.446E+00 -.529E+00 -.834E+00
   0.766E+00 0.371E+01 0.535E+01   -.771E+00 -.380E+01 -.542E+01   0.890E-02 0.961E-01 0.734E-01
   0.899E+00 0.236E+00 -.217E+01   -.887E+00 -.216E+00 0.217E+01   -.134E-01 -.215E-01 -.225E-02
   0.415E+01 0.427E+01 -.331E+01   -.422E+01 -.436E+01 0.331E+01   0.699E-01 0.881E-01 -.164E-02
   0.435E+01 -.528E+01 0.936E+01   -.426E+01 0.503E+01 -.909E+01   -.854E-01 0.255E+00 -.265E+00
   0.706E+01 -.194E+01 -.609E+01   -.707E+01 0.196E+01 0.633E+01   0.583E-02 -.115E-01 -.230E+00
   0.257E+02 -.206E+02 -.653E+01   -.262E+02 0.204E+02 0.586E+01   0.412E+00 0.185E+00 0.640E+00
   0.562E+01 0.385E+01 0.218E+02   -.604E+01 -.348E+01 -.221E+02   0.403E+00 -.338E+00 0.211E+00
   0.463E+01 0.195E+01 -.504E+01   -.460E+01 -.191E+01 0.510E+01   -.297E-01 -.359E-01 -.535E-01
   0.452E+02 0.369E+02 -.481E+02   -.486E+02 -.408E+02 0.521E+02   0.324E+01 0.380E+01 -.374E+01
   0.742E-03 -.960E-03 0.663E-03   -.931E-12 0.306E-12 0.711E-13   -.173E-03 -.457E-03 -.357E-03

 POSITION                                       TOTAL-FORCE (eV/Angst)
      5.32305      5.32301      5.32305        -0.000515      0.000958     -0.000520
      0.44137      0.44124      9.31639         0.000427      0.000144      0.000813
      0.44864      0.44805      2.21902        -0.001025      0.000606      0.000060
      0.44493      0.44444      5.76802         0.001664     -0.000979      0.000397
      0.43875      3.99002      9.32528        -0.000630     -0.000148      0.000222
      0.45339      3.99461      2.22205        -0.002026     -0.001341      0.000587
      0.44448      3.99086      5.77046         0.000543     -0.000001      0.000565
      0.43436      7.54132      9.31338         0.001406     -0.000142     -0.000580
      0.44099      7.54748      2.21124        -0.001238     -0.002451      0.001042
      0.43570      7.54343      5.76583         0.001668     -0.002434      0.000934
      3.98995      0.44084      9.32134         0.000835     -0.000091     -0.001919
      3.99720      0.45553      2.22603        -0.000889     -0.002248      0.001364
      3.99427      0.44814      5.76927         0.002216     -0.001329     -0.000195
      3.98751      3.98846      9.32638        -0.000611     -0.000261     -0.000122
      4.00883      4.00950      2.23287         0.000651      0.001804     -0.000549
      3.97257      4.02287      5.86334        -0.004143      0.004635     -0.001554
      3.98160      7.54186      9.31975         0.001642     -0.001992      0.000823
      3.98370      7.56159      2.19478        -0.000351     -0.002042      0.000431
      3.95952      7.55167      5.77320        -0.002631      0.003255     -0.001437
      7.53895      0.43356      9.31110         0.001088      0.000140     -0.000164
      7.54417      0.44351      2.21517        -0.002254      0.000035      0.001477
      7.53997      0.43788      5.76397        -0.000335      0.000624      0.001579
      7.54318      3.98491      9.32038        -0.000521      0.001021      0.001607
      7.56999      3.99024      2.18977        -0.001669      0.000852      0.001272
      7.56958      3.96916      5.76242        -0.001658      0.005324     -0.001444
      7.53115      7.53143      9.30084         0.002859     -0.001154      0.000779
      7.54856      7.54439      2.20362        -0.001614     -0.000932      0.001192
      7.51152      7.50032      5.73964         0.000180     -0.000629      0.001379
      8.41782      8.41851      8.41783         0.001236      0.000261      0.000977
      8.42978      8.43039      1.32029        -0.001224     -0.000825      0.000792
      8.41956      8.41518      4.86971        -0.000618     -0.001235     -0.001407
      8.42921      1.31978      8.42921        -0.001477     -0.001042     -0.001296
      8.43350      1.32856      1.33000        -0.000104      0.002634     -0.000771
      8.43771      1.32100      4.87808         0.000328      0.000869     -0.001550
      8.43302      4.86634      8.43299         0.000544     -0.000581      0.000854
      8.44578      4.87751      1.31367        -0.001119      0.003811      0.000204
      8.44222      4.87827      4.86803        -0.000025      0.000274      0.000390
      1.32027      8.43042      8.42982         0.000723     -0.000747     -0.001057
      1.33001      8.43444      1.33001        -0.000410     -0.001558     -0.000501
      1.31919      8.43959      4.88025         0.001397     -0.002358     -0.001218
      1.33003      1.32859      8.43351        -0.000584      0.002621     -0.000402
      1.33736      1.33627      1.33735        -0.000358      0.000627     -0.000199
      1.33922      1.33878      4.88553        -0.001353      0.000625     -0.000488
      1.31367      4.87754      8.44579         0.000519      0.003612     -0.001348
      1.33360      4.88258      1.33359         0.000161      0.000631      0.000171
      1.33082      4.88471      4.88591         0.000528      0.000000     -0.000800
      4.86969      8.41517      8.41950        -0.001442     -0.000980     -0.000048
      4.88024      8.43951      1.31925        -0.001303     -0.001929      0.001076
      4.87680      8.41964      4.87688        -0.000148     -0.001114     -0.000314
      4.87810      1.32107      8.43764        -0.001968      0.000824      0.000584
      4.88556      1.33881      1.33924        -0.000774      0.000313     -0.001708
      4.88538      1.34152      4.88536        -0.000679     -0.000607     -0.000247
      4.86803      4.87835      8.44205         0.000121     -0.000168      0.000713
      4.88592      4.88470      1.33091        -0.001026      0.000161     -0.000177
      0.44117      9.31777      0.44118        -0.001099     -0.002467     -0.001280
      0.44142      9.32383      3.98928        -0.000208     -0.002421      0.001887
      0.43479      9.31388      7.53992         0.000605     -0.002532     -0.000324
      0.44825      2.21793      0.44823        -0.000955     -0.001579     -0.000842
      0.45444      2.22165      3.99594        -0.001962      0.000794     -0.000680
      0.44186      2.21180      7.54522         0.000721      0.000972     -0.000935
[...]
      3.09751      3.10166      8.44244         0.000985      0.001210     -0.000760
      3.11492      3.11461      1.34522        -0.003183      0.001738     -0.000393
      3.13455      3.14573      4.90644        -0.000650      0.001444     -0.002220
      3.07607      6.65580      8.45630         0.001637     -0.000024     -0.001488
      3.10288      6.66114      1.32566         0.000742     -0.000339     -0.000656
      3.07648      6.67688      4.88366         0.001711     -0.004203      0.000351
      6.64886     10.19055      8.42003         0.000488      0.000844     -0.001278
      6.65612     10.20524      1.32471        -0.001312     -0.001169      0.002374
      6.65180     10.19794      4.87680        -0.002730     -0.000500     -0.000467
      6.66236      3.08448      8.45127         0.000319      0.002028      0.000375
      6.66447      3.10420      1.32630        -0.001983      0.002388     -0.000410
      6.68654      3.09439      4.87289         0.002075     -0.003025      0.000592
      6.63725      6.63653      8.41319        -0.001095     -0.000481      0.000678
      6.65856      6.65759      1.31967        -0.000149      0.001189      0.000921
      6.67351      6.62316      4.78275         0.003018     -0.003030      0.000468
    total drift:                                0.000552     -0.001388      0.000300

  FREE ENERGIE OF THE ION-ELECTRON SYSTEM (eV)
  free  energy   TOTEN  =     -2409.68668270 eV

  energy  without entropy=    -2409.68668270  energy(sigma->0) =    -2409.68668270

 d Force = 0.1288378E-03[ 0.483E-06, 0.257E-03]  d Energy = 0.1320130E-03-0.318E-05
 d Force = 0.2545901E-01[ 0.252E-01, 0.257E-01]  d Ewald  = 0.2545886E-01 0.148E-06

 Quasi-Newton relaxation of ions (Broydens 2nd method)
  g(Force)  = 0.644E-04   g(Stress)= 0.000E+00

 retain information from N=  4 steps
 eigenvalues of (default step * inverse Hessian matrix)
  average eigenvalue of G=   2.4183
 eigenvalue spectrum of G is  6.9597  1.7412  0.4861  0.4861

 reached required accuracy - stopping structural energy minimisation
 writing wavefunctions

 total charge

[...]

 magnetization (x)

# of ion       s       p       d       tot
    1       -0.004   0.085   0.000   0.081
    2        0.000   0.001   0.000   0.001
    3        0.000   0.000   0.000   0.000
    4        0.000   0.002   0.000   0.002
    5       -0.000   0.000   0.000   0.000
    6       -0.000   0.000   0.000   0.000
    7        0.000   0.001   0.000   0.001
    8        0.000   0.001   0.000   0.001
    9        0.000   0.005   0.000   0.005
   10       -0.000   0.000   0.000  -0.000
   11        0.000   0.002   0.000   0.002
   12        0.000   0.001   0.000   0.001
   13       -0.000   0.000   0.000   0.000
   14       -0.000   0.001   0.000   0.001
   15        0.000   0.006   0.000   0.007
   16        0.004   0.037   0.000   0.041
   17       -0.000   0.000   0.000  -0.000
   18        0.003   0.028   0.000   0.031
   19        0.002   0.020   0.000   0.022
   20       -0.000   0.000   0.000   0.000
   21        0.000   0.001   0.000   0.001
   22       -0.000   0.000   0.000   0.000
   23       -0.000  -0.001   0.000  -0.001
   24        0.000   0.003   0.000   0.004
   25       -0.000   0.011   0.000   0.011
   26       -0.000  -0.000   0.000  -0.000
   27       -0.000   0.000   0.000   0.000
   28       -0.000  -0.000   0.000  -0.001
   29        0.000   0.000   0.000   0.000
   30        0.000   0.000   0.000   0.000
   31        0.000   0.003   0.000   0.004
   32        0.000   0.003   0.000   0.003
   33        0.000   0.001   0.000   0.001
   34        0.000   0.004   0.000   0.004
   35        0.003   0.026   0.000   0.029
   36        0.000   0.000   0.000   0.000
   37        0.000   0.003   0.000   0.003
   38        0.000   0.000   0.000   0.000
   39       -0.000   0.000   0.000   0.000
   40        0.001   0.007   0.000   0.007
   41        0.000   0.001   0.000   0.001
   42        0.000   0.001   0.000   0.001
   43       -0.000   0.000   0.000  -0.000
   44        0.000   0.000   0.000   0.000
   45        0.000   0.002   0.000   0.002
   46       -0.000  -0.000   0.000  -0.000
   47        0.000   0.003   0.000   0.004
   48        0.001   0.007   0.000   0.007
   49       -0.000  -0.000   0.000  -0.001
   50        0.000   0.004   0.000   0.004
   51       -0.000   0.000   0.000  -0.000
   52        0.000   0.001   0.000   0.001
   53        0.000   0.003   0.000   0.003
   54       -0.000  -0.000   0.000  -0.000
   55        0.000   0.002   0.000   0.002
   56        0.000   0.003   0.000   0.004
   57       -0.000   0.000   0.000   0.000
   58       -0.000   0.000   0.000   0.000
   59        0.000   0.001   0.000   0.001
   60        0.000   0.001   0.000   0.001
[...]
  201       -0.000   0.000   0.000   0.000
  202       -0.000  -0.000   0.000  -0.000
  203       -0.000  -0.000   0.000  -0.001
  204        0.000   0.003   0.000   0.004
  205       -0.000  -0.001   0.000  -0.001
  206       -0.000   0.011   0.000   0.011
  207        0.000   0.001   0.000   0.001
  208        0.000   0.002   0.000   0.002
  209       -0.000   0.000   0.000   0.000
  210        0.003   0.028   0.000   0.031
  211       -0.000   0.000   0.000  -0.000
  212        0.002   0.020   0.000   0.022
  213        0.000   0.006   0.000   0.007
  214       -0.000   0.001   0.000   0.001
  215        0.004   0.037   0.000   0.041
tot          0.086   1.274   0.000   1.360