 vasp.5.4.4.18Apr17-6-g9f103f2a35 (build Dec 19 2024 10:44:08) gamma-only
 executed on NVIDIA22.7_CrayMPICH date 2025.02.14  12:27:36

 INCAR:
 POTCAR:   PAW_PBE Si 05Jan2001
 POTCAR:   PAW_PBE C 08Apr2002
 POTCAR:   PAW_PBE Si 05Jan2001
   VRHFIN =Si: s2p2

   TITEL  = PAW_PBE Si 05Jan2001
   POMASS =   28.085; ZVAL   =    4.000    mass and valenz
   ENMAX  =  245.345; ENMIN  =  184.009 eV
   QCUT   =   -4.246; QGAM   =    8.493    optimization parameters

   Description
     l     E      TYP  RCUT    TYP  RCUT
     0   .000     23  1.900
     0   .000     23  1.900
     1   .000     23  1.900
     1   .000     23  1.900
     2   .000      7  1.900

 POTCAR:   PAW_PBE C 08Apr2002
   VRHFIN =C: s2p2

   TITEL  = PAW_PBE C 08Apr2002
   POMASS =   12.011; ZVAL   =    4.000    mass and valenz
   ENMAX  =  400.000; ENMIN  =  300.000 eV
   QCUT   =   -5.516; QGAM   =   11.032    optimization parameters

   Description
     l     E      TYP  RCUT    TYP  RCUT
     0   .000     23  1.200
     0   .000     23  1.200
     1   .000     23  1.500
     1  2.500     23  1.500
     2   .000      7  1.500

 Optimization of the real space projectors (new method)

 maximal supplied QI-value         = 19.84
 optimisation between [QCUT,QGAM] = [ 10.12, 20.44] = [ 28.68,116.96] Ry
 Optimized for a Real-space Cutoff    1.38 Angstroem

   l    n(q)    QCUT    max X(q) W(low)/X(q) W(high)/X(q)  e(spline)
   0      8    10.119     8.708    0.16E-04    0.67E-05    0.60E-08
   0      8    10.119   106.241    0.56E-04    0.11E-03    0.54E-07
   1      8    10.119     5.901    0.16E-04    0.16E-05    0.22E-07
   1      8    10.119    73.241    0.22E-03    0.17E-03    0.18E-06
 Optimization of the real space projectors (new method)

 maximal supplied QI-value         = 25.13
 optimisation between [QCUT,QGAM] = [ 10.05, 20.36] = [ 28.30,116.06] Ry
 Optimized for a Real-space Cutoff    1.38 Angstroem

   l    n(q)    QCUT    max X(q) W(low)/X(q) W(high)/X(q)  e(spline)
   0      8    10.053     5.582    0.33E-04    0.15E-04    0.75E-07
   0      8    10.053    69.432    0.23E-03    0.38E-03    0.25E-06
   1      8    10.053     2.780    0.76E-04    0.11E-03    0.15E-06
   1      8    10.053     4.549    0.19E-03    0.19E-03    0.27E-06
 PAW_PBE Si 05Jan2001                   :
 PAW_PBE C 08Apr2002                    :

 POSCAR: generated by phonopy
  positions in direct lattice
  velocities in cartesian coordinates
 exchange correlation table for  LEXCH =        8
   RHO(1)=    0.500       N(1)  =     2000
   RHO(2)=  100.500       N(2)  =     4000

 ion  position               nearest neighbor table
   1  0.000  0.000  0.000-  26 1.98 189 1.98 136 1.98  75 1.98  82 1.98 117 1.98
   2  0.205  0.205  0.039- 189 1.54 139 1.54  91 1.54  40 1.56
   3  0.207  0.207  0.373-  41 1.53  92 1.54 140 1.54 190 1.55
   4  0.209  0.209  0.707-  42 1.53 191 1.54 141 1.54  93 1.54
   5  0.209  0.541  0.042-  94 1.53 192 1.54 142 1.54  43 1.54
   6  0.208  0.541  0.375-  95 1.53  44 1.53 143 1.54 193 1.54
   7  0.209  0.542  0.708-  45 1.54  96 1.54 144 1.54 194 1.54
   8  0.211  0.871  0.042- 136 1.51 195 1.52  97 1.53  37 1.55
   9  0.208  0.874  0.375- 196 1.53  38 1.54  98 1.54 137 1.54
  10  0.211  0.875  0.706- 138 1.53  39 1.53 197 1.53  99 1.54
  11  0.541  0.209  0.042- 148 1.53 198 1.54 100 1.54  49 1.54
  12  0.541  0.208  0.375- 149 1.53  50 1.53 101 1.54 199 1.54
  13  0.542  0.209  0.708-  51 1.54 150 1.54 102 1.54 200 1.54
  14  0.542  0.542  0.042- 103 1.53 151 1.53 201 1.54  52 1.54
  15  0.541  0.541  0.375- 104 1.54 152 1.54  53 1.54 202 1.54
  16  0.542  0.542  0.708- 153 1.53 105 1.53  54 1.54 203 1.54
  17  0.542  0.875  0.042- 145 1.53 204 1.54 106 1.54  46 1.54
  18  0.541  0.875  0.376-  47 1.53 146 1.53 205 1.54 107 1.54
  19  0.543  0.875  0.709- 147 1.53  48 1.53 108 1.54 206 1.54
  20  0.871  0.211  0.042-  82 1.51 207 1.52 157 1.53  31 1.55
  21  0.874  0.208  0.375- 208 1.53  32 1.54 158 1.54  83 1.54
  22  0.875  0.211  0.706-  84 1.53  33 1.53 209 1.53 159 1.54
  23  0.875  0.542  0.042-  85 1.53 210 1.54 160 1.54  34 1.54
  24  0.875  0.541  0.376-  35 1.53  86 1.53 211 1.54 161 1.54
  25  0.875  0.543  0.709-  87 1.53  36 1.53 162 1.54 212 1.54
  26  0.874  0.874  0.052-  88 1.51 154 1.51 213 1.54   1 1.98
  27  0.875  0.875  0.376-  29 1.53 214 1.54 155 1.54  89 1.54
  28  0.877  0.877  0.711-  30 1.53  90 1.54 156 1.54 215 1.55
  29  0.958  0.958  0.292- 163 1.53  27 1.53 115 1.55  73 1.55
  30  0.959  0.959  0.625- 164 1.53  28 1.53 116 1.54  74 1.54
  31  0.958  0.292  0.958- 165 1.53  78 1.53  20 1.55 111 1.55
  32  0.957  0.291  0.291-  21 1.54  76 1.54 166 1.54 109 1.56
  33  0.958  0.293  0.624-  22 1.53  77 1.53 167 1.54 110 1.54
  34  0.959  0.625  0.959- 168 1.53  81 1.53  23 1.54 114 1.54
  35  0.958  0.624  0.293-  79 1.53  24 1.53 169 1.54 112 1.54
  36  0.959  0.626  0.626-  25 1.53  80 1.53 170 1.54 113 1.54
  37  0.292  0.958  0.958- 171 1.53 126 1.53   8 1.55  57 1.55
  38  0.291  0.957  0.291-   9 1.54 124 1.54 172 1.54  55 1.56
  39  0.293  0.958  0.624-  10 1.53 125 1.53 173 1.54  56 1.54
  40  0.291  0.291  0.957-  60 1.54 120 1.54 174 1.54   2 1.56
  41  0.291  0.291  0.291-   3 1.53  58 1.53 118 1.53 175 1.54
  42  0.292  0.292  0.624-   4 1.53  59 1.53 119 1.53 176 1.54
  43  0.293  0.624  0.958-  63 1.53 123 1.53 177 1.54   5 1.54
  44  0.292  0.624  0.292-  61 1.53   6 1.53 121 1.53 178 1.54
  45  0.292  0.625  0.625-   7 1.54  62 1.54 122 1.54 179 1.54
  46  0.625  0.959  0.959- 180 1.53 135 1.53  17 1.54  66 1.54
  47  0.624  0.958  0.293- 133 1.53  18 1.53 181 1.54  64 1.54
  48  0.626  0.959  0.626-  19 1.53 134 1.53 182 1.54  65 1.54
  49  0.624  0.293  0.958- 129 1.53  69 1.53 183 1.54  11 1.54
  50  0.624  0.292  0.292- 127 1.53  12 1.53  67 1.53 184 1.54
  51  0.625  0.292  0.625-  13 1.54 128 1.54  68 1.54 185 1.54
  52  0.626  0.626  0.959-  72 1.53 132 1.53 186 1.54  14 1.54
  53  0.625  0.625  0.292-  70 1.54 130 1.54  15 1.54 187 1.54
  54  0.626  0.626  0.626-  16 1.54 131 1.54  71 1.54 188 1.54
  55  0.205  0.039  0.205- 136 1.54  91 1.54 190 1.54  38 1.56
  56  0.209  0.042  0.541-  92 1.53 137 1.54 191 1.54  39 1.54
  57  0.211  0.042  0.871- 189 1.51 138 1.52  93 1.53  37 1.55
  58  0.207  0.373  0.207-  41 1.53  94 1.54 193 1.54 139 1.55
  59  0.208  0.375  0.541-  95 1.53  42 1.53 194 1.54 140 1.54
  60  0.208  0.375  0.874- 141 1.53  40 1.54  96 1.54 192 1.54
[...]
 201  0.458  0.458  0.958-  69 1.53 123 1.53  14 1.54 174 1.54
 202  0.458  0.458  0.292-  67 1.53 121 1.53 175 1.54  15 1.54
 203  0.459  0.459  0.625-  68 1.54 122 1.54 176 1.54  16 1.54
 204  0.459  0.791  0.958-  72 1.53  17 1.54 126 1.54 177 1.54
 205  0.458  0.791  0.292- 178 1.54  70 1.54 124 1.54  18 1.54
 206  0.459  0.792  0.625-  71 1.53 179 1.53 125 1.54  19 1.54
 207  0.789  0.129  0.958-  75 1.51  20 1.52 129 1.53 180 1.55
 208  0.789  0.125  0.294-  73 1.53 181 1.53  21 1.53 127 1.54
 209  0.792  0.126  0.625-  22 1.53 182 1.54 128 1.54  74 1.54
 210  0.791  0.459  0.958- 132 1.53  23 1.54  78 1.54 183 1.54
 211  0.791  0.458  0.292- 184 1.54 130 1.54  76 1.54  24 1.54
 212  0.792  0.459  0.625- 131 1.53 185 1.53  77 1.54  25 1.54
 213  0.795  0.795  0.961-  26 1.54  81 1.54 135 1.54 186 1.56
 214  0.791  0.791  0.293- 187 1.53  27 1.54 133 1.54  79 1.54
 215  0.793  0.793  0.627- 188 1.53 134 1.54  80 1.54  28 1.55

IMPORTANT INFORMATION: All symmetrisations will be switched off!
NOSYMM: (Re-)initialisation of all symmetry stuff for point group C_1.

 KPOINTS: pymatgen v1.1 with grid density = 2210 /

Automatic generation of k-mesh.
Space group operators:
 irot       det(A)        alpha          n_x          n_y          n_z        tau_x        tau_y        tau_z
    1     1.000000     0.000000     1.000000     0.000000     0.000000     0.000000     0.000000     0.000000

 Subroutine IBZKPT returns following result:

 Found      1 irreducible k-points:

 Following reciprocal coordinates:
            Coordinates               Weight
  0.000000  0.000000  0.000000      1.000000

 Following cartesian coordinates:
            Coordinates               Weight
  0.000000  0.000000  0.000000      1.000000

 Subroutine IBZKPT_HF returns following result:

 Found      1 k-points in 1st BZ
 the following      1 k-points will be used (e.g. in the exchange kernel)
 Following reciprocal coordinates:   # in IRBZ
  0.000000  0.000000  0.000000    1.00000000   1 t-inv F

 SYSTEM =  unknown system
 POSCAR =  generated by phonopy

 Startparameter for this run:
   NWRITE =      2    write-flag & timer
   PREC   = accura    normal or accurate (medium, high low for compatibility)
   ISTART =      1    job   : 0-new  1-cont  2-samecut
   ICHARG =      2    charge: 1-file 2-atom 10-const
   ISPIN  =      2    spin polarized calculation?
   LNONCOLLINEAR =      F non collinear calculations
   LSORBIT =      F    spin-orbit coupling
   INIWAV =      1    electr: 0-lowe 1-rand  2-diag
   LASPH  =      F    aspherical Exc in radial PAW
   METAGGA=      F    non-selfconsistent MetaGGA calc.

 Electronic Relaxation 1
   ENCUT  =  400.0 eV  29.40 Ry    5.42 a.u.  17.36 17.36 17.36*2*pi/ulx,y,z
   ENINI  =  400.0     initial cutoff
   ENAUG  =  644.9 eV  augmentation charge cutoff
   NELM   =    100;   NELMIN=  2; NELMDL=  0     # of ELM steps
   EDIFF  = 0.1E-04   stopping-criterion for ELM
   LREAL  =      T    real-space projection
   NLSPLINE    = F    spline interpolate recip. space projectors
   LCOMPAT=      F    compatible to vasp.4.4
   GGA_COMPAT  = T    GGA compatible to vasp.4.4-vasp.4.6
   LMAXPAW     = -100 max onsite density
   LMAXMIX     =    2 max onsite mixed and CHGCAR
   VOSKOWN=      0    Vosko Wilk Nusair interpolation
   ROPT   =   -0.00025  -0.00025
 Ionic relaxation
   EDIFFG = -.1E-01   stopping-criterion for IOM
   NSW    =     99    number of steps for IOM
   NBLOCK =      1;   KBLOCK =     99    inner block; outer block
   IBRION =      2    ionic relax: 0-MD 1-quasi-New 2-CG
   NFREE  =      1    steps in history (QN), initial steepest desc. (CG)
   ISIF   =      2    stress and relaxation
   IWAVPR =     11    prediction:  0-non 1-charg 2-wave 3-comb
   ISYM   =      0    0-nonsym 1-usesym 2-fastsym
   LCORR  =      T    Harris-Foulkes like correction to forces

   POTIM  = 0.5000    time-step for ionic-motion
   TEIN   =    0.0    initial temperature
   TEBEG  =    0.0;   TEEND  =   0.0 temperature during run
   SMASS  =  -3.00    Nose mass-parameter (am)
   estimated Nose-frequenzy (Omega)   =  0.10E-29 period in steps =****** mass=  -0.259E-26a.u.
   SCALEE = 1.0000    scale energy and forces
   NPACO  =    256;   APACO  = 16.0  distance and # of slots for P.C.
   PSTRESS=    0.0 pullay stress

  Mass of Ions in am
   POMASS =  28.09 12.01
  Ionic Valenz
   ZVAL   =   4.00  4.00
  Atomic Wigner-Seitz radii
  virtual crystal weights
   VCA    =   1.00  1.00
   NELECT =     860.0000    total number of electrons
   NUPDOWN=       2.0000    fix difference up-down

 DOS related values:
   EMIN   =  10.00;   EMAX   =-10.00  energy-range for DOS
   EFERMI =   0.00
   ISMEAR =    -2;   SIGMA  =   0.05  broadening in eV -4-tet -1-fermi 0-gaus

 Electronic relaxation 2 (details)
[...]
   -.588E+00 -.355E+01 -.319E-01   0.614E+00 0.356E+01 0.417E-01   -.201E-01 -.645E-02 -.104E-01
   -.462E+00 -.792E+00 0.979E+00   0.481E+00 0.785E+00 -.102E+01   -.171E-01 0.962E-02 0.351E-01
   -.714E+00 -.816E+00 -.132E+01   0.691E+00 0.824E+00 0.133E+01   0.226E-01 -.863E-02 -.144E-01
   -.177E+01 -.490E+01 -.222E+01   0.180E+01 0.493E+01 0.221E+01   -.278E-01 -.244E-01 0.177E-01
   -.151E+01 -.227E-01 0.675E+00   0.151E+01 0.417E-01 -.618E+00   0.675E-03 -.112E-01 -.516E-01
   -.406E+01 0.968E+00 -.405E+01   0.409E+01 -.102E+01 0.405E+01   -.259E-01 0.423E-01 -.180E-02
   -.321E+02 -.844E+01 0.398E+00   0.325E+02 0.782E+01 0.159E+00   -.368E+00 0.602E+00 -.521E+00
   -.744E+01 -.621E+01 -.139E-01   0.747E+01 0.643E+01 -.102E+00   -.254E-01 -.207E+00 0.117E+00
   -.889E+01 0.704E+01 -.468E+01   0.874E+01 -.685E+01 0.463E+01   0.148E+00 -.184E+00 0.470E-01
   -.560E-01 -.611E+01 -.385E+01   0.128E+00 0.621E+01 0.389E+01   -.658E-01 -.968E-01 -.443E-01
   -.928E+00 -.233E+01 -.846E+00   0.945E+00 0.226E+01 0.799E+00   -.152E-01 0.710E-01 0.430E-01
   0.156E+01 0.114E+01 -.527E+01   -.162E+01 -.111E+01 0.535E+01   0.585E-01 -.250E-01 -.842E-01
   -.749E+01 -.728E+02 -.245E+02   0.702E+01 0.772E+02 0.256E+02   0.464E+00 -.411E+01 -.106E+01
   -.234E+01 -.758E+01 -.221E+01   0.235E+01 0.761E+01 0.226E+01   -.420E-02 -.297E-01 -.479E-01
   -.133E+01 0.125E+02 -.182E+02   0.180E+01 -.127E+02 0.184E+02   -.440E+00 0.220E+00 -.253E+00
   -.219E+01 -.251E+02 0.595E+01   0.159E+01 0.254E+02 -.595E+01   0.570E+00 -.301E+00 0.262E-02
   0.366E-01 0.981E+01 -.601E+01   -.892E-02 -.990E+01 0.597E+01   -.235E-01 0.915E-01 0.278E-01
   -.225E+02 0.108E+02 0.583E+01   0.226E+02 -.114E+02 -.581E+01   -.770E-01 0.527E+00 -.207E-01
   -.115E+02 -.719E+01 0.518E+01   0.121E+02 0.755E+01 -.546E+01   -.584E+00 -.339E+00 0.277E+00
   -.468E+01 0.360E+01 -.108E+01   0.469E+01 -.340E+01 0.107E+01   -.153E-01 -.189E+00 0.291E-02
   0.829E+01 -.472E+01 -.607E+01   -.838E+01 0.480E+01 0.601E+01   0.939E-01 -.725E-01 0.455E-01
   0.450E+00 -.616E+01 -.504E+00   -.348E+00 0.611E+01 0.430E+00   -.101E+00 0.444E-01 0.689E-01
   0.235E+01 0.172E+01 -.624E+01   -.236E+01 -.173E+01 0.650E+01   0.102E-01 0.117E-01 -.256E+00
   0.224E+02 0.134E+02 0.662E+01   -.227E+02 -.134E+02 -.677E+01   0.278E+00 -.114E-01 0.134E+00
   0.124E+02 -.469E+01 0.713E+01   -.124E+02 0.472E+01 -.707E+01   0.436E-01 -.238E-01 -.489E-01
   0.631E+01 0.219E+01 0.601E+00   -.630E+01 -.238E+01 -.673E+00   -.173E-01 0.178E+00 0.686E-01
   0.261E+01 0.131E+02 0.688E+01   -.261E+01 -.134E+02 -.692E+01   0.171E-02 0.230E+00 0.441E-01
   0.204E+01 0.743E+00 0.829E+01   -.210E+01 -.755E+00 -.833E+01   0.518E-01 0.115E-01 0.515E-01
   0.211E+01 0.244E+01 0.210E+01   -.214E+01 -.241E+01 -.211E+01   0.212E-01 -.324E-01 0.118E-01
   0.521E+01 0.446E+01 0.829E+00   -.535E+01 -.437E+01 -.940E+00   0.122E+00 -.874E-01 0.106E+00
   0.302E+01 0.263E+00 0.266E+01   -.295E+01 -.321E+00 -.267E+01   -.692E-01 0.571E-01 0.760E-02
   0.318E+01 0.216E+01 0.245E+00   -.322E+01 -.219E+01 -.203E+00   0.365E-01 0.359E-01 -.408E-01
   -.968E+01 -.554E+01 -.566E+01   0.971E+01 0.555E+01 0.571E+01   -.186E-01 -.315E-02 -.481E-01
   -.196E+00 -.502E+01 -.197E+01   0.227E+00 0.503E+01 0.202E+01   -.246E-01 0.375E-02 -.555E-01
   -.469E+01 0.942E+00 -.567E+01   0.469E+01 -.940E+00 0.557E+01   -.594E-02 -.166E-02 0.966E-01
   -.446E+01 0.205E+01 -.235E+01   0.439E+01 -.208E+01 0.244E+01   0.768E-01 0.324E-01 -.800E-01
   -.134E+01 -.121E+01 -.450E+00   0.142E+01 0.127E+01 0.425E+00   -.767E-01 -.515E-01 0.279E-01
   -.253E+01 0.993E-01 -.269E+01   0.253E+01 -.804E-01 0.272E+01   -.847E-03 -.220E-01 -.297E-01
   -.184E+01 -.413E+01 -.591E+01   0.185E+01 0.413E+01 0.591E+01   -.946E-02 -.399E-02 -.483E-02
   -.146E+01 -.253E+01 -.216E+01   0.149E+01 0.254E+01 0.219E+01   -.323E-01 -.574E-02 -.318E-01
   -.118E+01 -.428E+00 -.602E+01   0.119E+01 0.427E+00 0.610E+01   -.219E-02 0.239E-02 -.803E-01
   0.216E+02 -.835E+01 0.222E+02   -.221E+02 0.852E+01 -.220E+02   0.554E+00 -.166E+00 -.151E+00
   0.471E+01 0.285E+01 0.340E+01   -.465E+01 -.291E+01 -.339E+01   -.479E-01 0.475E-01 -.672E-02
   0.110E+02 0.293E+02 0.505E+01   -.111E+02 -.290E+02 -.540E+01   0.791E-01 -.254E+00 0.328E+00
   0.142E-01 0.179E+01 0.128E+02   0.636E-02 -.182E+01 -.131E+02   -.201E-01 0.297E-01 0.265E+00
   0.151E+01 0.211E+01 0.462E+01   -.153E+01 -.210E+01 -.469E+01   0.774E-02 -.936E-02 0.680E-01
   0.105E+01 0.894E+01 0.320E+01   -.108E+01 -.902E+01 -.311E+01   0.229E-01 0.737E-01 -.820E-01
[...]
   0.714E+00 0.815E+00 0.132E+01   -.691E+00 -.823E+00 -.133E+01   -.226E-01 0.860E-02 0.144E-01
   0.461E+00 0.791E+00 -.980E+00   -.480E+00 -.784E+00 0.102E+01   0.170E-01 -.956E-02 -.350E-01
   0.277E+01 -.581E+00 -.148E+01   -.282E+01 0.616E+00 0.144E+01   0.402E-01 -.319E-01 0.302E-01
   0.206E+01 -.132E+01 0.709E+00   -.199E+01 0.130E+01 -.637E+00   -.718E-01 0.305E-01 -.718E-01
   0.852E+00 0.103E+01 -.256E+01   -.870E+00 -.108E+01 0.255E+01   0.112E-01 0.431E-01 0.375E-02
   -.310E+02 0.491E+01 -.597E+01   0.306E+02 -.505E+01 0.645E+01   0.415E+00 0.130E+00 -.458E+00
   -.507E+01 -.808E+01 -.179E+01   0.548E+01 0.827E+01 0.166E+01   -.372E+00 -.170E+00 0.131E+00
   -.797E+01 0.352E+01 -.356E+01   0.806E+01 -.348E+01 0.345E+01   -.855E-01 -.412E-01 0.107E+00
   -.491E+01 -.255E+01 -.352E+01   0.491E+01 0.250E+01 0.354E+01   -.382E-02 0.490E-01 -.283E-01
   -.368E+01 -.319E+01 -.134E+01   0.383E+01 0.325E+01 0.130E+01   -.140E+00 -.515E-01 0.409E-01
   -.248E+01 0.495E-02 -.499E+01   0.247E+01 0.256E-01 0.507E+01   0.138E-01 -.265E-01 -.894E-01
   -.423E+01 -.220E+02 -.233E+02   0.441E+01 0.225E+02 0.235E+02   -.172E+00 -.431E+00 -.193E+00
   -.308E+01 -.101E+02 -.329E+01   0.296E+01 0.102E+02 0.330E+01   0.116E+00 -.839E-01 -.167E-01
   -.193E+01 0.147E+01 -.124E+02   0.195E+01 -.151E+01 0.126E+02   -.249E-01 0.422E-01 -.213E+00
   -.193E-03 0.660E-03 0.228E-03   0.344E-12 0.263E-12 0.961E-12   0.731E-03 -.179E-03 -.419E-03

 POSITION                                       TOTAL-FORCE (eV/Angst)
      0.00001      0.00000      0.00000         0.000043     -0.000068     -0.000034
      0.01012      1.44490      2.77400         0.000537     -0.003363      0.002476
     -0.00028     -1.44378      4.84195         0.000922      0.000686      0.002359
      0.00425     -4.33393      6.91330        -0.000680     -0.003955     -0.000151
     -2.50422      2.89722      4.86067         0.003699      0.000261      0.003076
     -2.50423     -0.00147      6.90571         0.001496     -0.003255      0.002471
     -2.50624     -2.89395      8.96265         0.001393      0.000573     -0.000936
     -4.96131      4.34978      6.91896        -0.003209     -0.000025      0.000917
     -5.01440      1.44680      8.96110        -0.000495     -0.000078      0.000366
     -4.99684     -1.42038     11.01471        -0.001699     -0.000648     -0.000460
      2.49892      2.89587      4.86320         0.003157     -0.002777      0.000422
      2.50264     -0.00319      6.90968         0.001501      0.002704     -0.000455
      2.50282     -2.89017      8.96117         0.003097     -0.004250      0.002425
      0.00038      4.34475      6.91644         0.005298      0.000577      0.000408
     -0.00001      1.44548      8.96206         0.000838      0.001049      0.000125
      0.00077     -1.44534     11.01820         0.001285      0.000263     -0.000768
     -2.50824      5.79107      8.96416        -0.000987      0.001469      0.003941
     -2.51055      2.88632     11.01472        -0.002651      0.002286      0.003612
     -2.50392      0.00297     13.06955         0.002347     -0.001269     -0.001386
      4.96821      4.32777      6.90458        -0.004945      0.001728      0.000229
      5.01152      1.44292      8.95863         0.003206      0.001313      0.004168
      5.00277     -1.43663     11.00930        -0.000948     -0.000729     -0.001859
      2.50764      5.79574      8.96847         0.001750      0.000118      0.000048
      2.50798      2.89142     11.01380        -0.000590      0.001375     -0.000944
      2.50472      0.00096     13.07534         0.001477      0.000567      0.000019
     -0.04366      7.14594     11.03818         0.000503      0.002435     -0.000041
     -0.00116      4.33984     13.06242        -0.000969      0.000766      0.000504
     -0.00055      1.44316     15.14680         0.000640      0.001073     -0.002620
     -0.00877      5.79152     13.56940        -0.000880     -0.000475      0.000842
      0.00126      2.89711     15.63287         0.003541     -0.000319     -0.000771
      5.01618     -2.90416     13.56727        -0.000074     -0.000820      0.002493
      5.02134      2.89828      9.45388        -0.004736     -0.001350     -0.000509
      5.01396      0.00885     11.52496        -0.000839     -0.001131     -0.000743
      2.50772     -1.44662     15.63440         0.001726      0.001759     -0.001701
      2.51392      4.33811     11.52462        -0.001200     -0.000279     -0.001074
      2.50771      1.44771     13.58861        -0.003502     -0.000084     -0.004698
     -4.99695     -2.88340     13.57751         0.002611      0.001889     -0.004060
     -5.00848      2.89573      9.46968        -0.000136      0.001462      0.000234
     -5.00589      0.01819     11.52362         0.002535      0.000678     -0.001113
      0.00417     -5.78957      9.46557         0.000119     -0.000972     -0.000292
     -0.00054     -0.00021      5.36059        -0.001399     -0.000254      0.001864
     -0.00011     -2.88840      7.42229        -0.001086     -0.000863     -0.001664
     -2.48959     -4.34449     11.52358         0.002540      0.001520     -0.000896
     -2.50131      1.44415      7.42206        -0.000963      0.000466     -0.002463
     -2.50415     -1.44609      9.47653         0.002139      0.002754     -0.000901
     -2.51640     -1.45287     15.62684         0.004296      0.001005     -0.000458
     -2.52080      4.32506     11.52440         0.000141      0.003272     -0.000871
     -2.50889      1.44865     13.58089        -0.000985      0.000477     -0.002183
      2.48665     -4.34610     11.52450         0.001302     -0.001836     -0.000038
      2.49936      1.44312      7.42391        -0.000890      0.001290      0.002415
      2.50477     -1.44561      9.47855         0.001034     -0.002781     -0.001581
      0.00030     -2.89647     13.58293        -0.001629     -0.000677     -0.002353
      0.00078      2.89215      9.47834        -0.002979      0.002743     -0.001818
      0.00090      0.00037     11.53564         0.003101      0.001675     -0.000931
      1.25701     -0.71637      2.78059        -0.001473      0.001439      0.001317
      1.25759     -3.61625      4.86120         0.002017      0.001727      0.001063
      1.28656     -6.46476      6.91769        -0.000701     -0.003245      0.001251
     -1.25006      0.72145      4.84020         0.001938     -0.000138      0.003081
     -1.25366     -2.16797      6.90640        -0.002610      0.001843      0.000494
     -1.25364     -5.06716      8.95964        -0.000426     -0.001107      0.002486
[...]
     -0.00038     -4.34476     11.52308        -0.005314     -0.000550     -0.000234
     -0.00076      1.44534      7.42131        -0.001331     -0.000185      0.000865
      0.00000     -1.44548      9.47745        -0.000846     -0.000898     -0.000056
     -2.49892     -2.89587     13.57632        -0.003102      0.002741     -0.000359
     -2.50283      2.89017      9.47835        -0.003038      0.004289     -0.002428
     -2.50264      0.00319     11.52984        -0.001434     -0.002635      0.000443
      4.96130     -4.34978     11.52056         0.003281     -0.000106     -0.000952
      4.99685      1.42038      7.42481         0.001732      0.000609      0.000418
      5.01440     -1.44679      9.47842         0.000528      0.000102     -0.000472
      2.50423     -2.89722     13.57885        -0.003823     -0.000280     -0.002959
      2.50624      2.89395      9.47686        -0.001519     -0.000539      0.000987
      2.50423      0.00148     11.53381        -0.001609      0.003348     -0.002470
     -0.01013     -1.44490     15.66552        -0.000538      0.003262     -0.002454
     -0.00426      4.33393     11.52622         0.000678      0.003962      0.000112
      0.00028      1.44378     13.59757        -0.000940     -0.000635     -0.002412
    total drift:                                0.000522      0.000456     -0.000212

  FREE ENERGIE OF THE ION-ELECTRON SYSTEM (eV)
  free  energy   TOTEN  =     -2409.64094134 eV

  energy  without entropy=    -2409.64094134  energy(sigma->0) =    -2409.64094134

 d Force = 0.9936680E-04[ 0.610E-05, 0.193E-03]  d Energy = 0.1002196E-03-0.853E-06
 d Force = 0.4293100E-01[ 0.425E-01, 0.434E-01]  d Ewald  = 0.4292983E-01 0.118E-05

 Conjugate gradient step on ions:
 trial-energy change:   -0.000100  1 .order   -0.000099   -0.000193   -0.000006
  (g-gl).g = 0.270E-03      g.g   = 0.278E-03  gl.gl    = 0.716E-03
 g(Force)  = 0.278E-03   g(Stress)= 0.000E+00 ortho     = 0.117E-04
 gamma     =   0.37707
 trial     =   0.68222
 opt step  =   0.70451  (harmonic =   0.70451) maximal distance =0.00035869
 next E    = -2409.640941   (d E  =  -0.00010)

 reached required accuracy - stopping structural energy minimisation
 writing wavefunctions

 total charge

[...]

 magnetization (x)

# of ion       s       p       d       tot
    1       -0.005   0.084   0.000   0.079
    2       -0.001  -0.001   0.000  -0.002
    3       -0.000   0.000   0.000  -0.000
    4       -0.000  -0.000   0.000  -0.000
    5       -0.000   0.000   0.000   0.000
    6       -0.000   0.000   0.000   0.000
    7       -0.000   0.000   0.000   0.000
    8       -0.001   0.002   0.000   0.001
    9       -0.000  -0.000   0.000  -0.000
   10       -0.000   0.000   0.000   0.000
   11       -0.000   0.000   0.000   0.000
   12        0.000   0.000   0.000   0.001
   13        0.000   0.004   0.000   0.004
   14        0.000   0.002   0.000   0.002
   15        0.000   0.001   0.000   0.001
   16       -0.000   0.000   0.000   0.000
   17        0.000   0.002   0.000   0.002
   18        0.000   0.001   0.000   0.001
   19       -0.000   0.000   0.000   0.000
   20        0.001   0.013   0.000   0.014
   21       -0.000   0.000   0.000   0.000
   22        0.003   0.022   0.000   0.025
   23        0.000   0.001   0.000   0.001
   24        0.000   0.003   0.000   0.003
   25        0.000   0.001   0.000   0.001
   26        0.014   0.138   0.000   0.152
   27        0.000   0.003   0.000   0.003
   28        0.000   0.003   0.000   0.003
   29       -0.000   0.001   0.000   0.001
   30       -0.000   0.000   0.000   0.000
   31       -0.000   0.000   0.000   0.000
   32       -0.000  -0.000   0.000  -0.000
   33        0.001   0.008   0.000   0.009
   34       -0.000   0.000   0.000   0.000
   35        0.001   0.007   0.000   0.008
   36       -0.000  -0.000   0.000  -0.000
   37        0.000   0.005   0.000   0.005
   38        0.002   0.020   0.000   0.022
   39        0.000   0.001   0.000   0.001
   40        0.002   0.014   0.000   0.015
   41        0.000   0.000   0.000   0.000
   42        0.000   0.002   0.000   0.002
   43        0.000   0.002   0.000   0.002
   44        0.000   0.002   0.000   0.002
   45        0.000   0.001   0.000   0.001
   46       -0.000  -0.000   0.000  -0.001
   47        0.000   0.001   0.000   0.001
   48        0.000   0.001   0.000   0.001
   49        0.000   0.003   0.000   0.003
   50       -0.000   0.000   0.000  -0.000
   51       -0.000   0.000   0.000   0.000
   52        0.000   0.001   0.000   0.001
   53       -0.000   0.001   0.000   0.001
   54        0.000   0.001   0.000   0.001
   55       -0.002  -0.002   0.000  -0.003
   56       -0.000   0.000   0.000   0.000
   57       -0.001   0.000   0.000  -0.001
   58       -0.000   0.000   0.000   0.000
   59       -0.000   0.000   0.000   0.000
   60       -0.000   0.000   0.000  -0.000
[...]
  201        0.000   0.002   0.000   0.002
  202       -0.000   0.000   0.000   0.000
  203        0.000   0.001   0.000   0.001
  204       -0.000   0.000   0.000   0.000
  205        0.000   0.004   0.000   0.004
  206        0.000   0.000   0.000   0.001
  207       -0.001   0.002   0.000   0.001
  208       -0.000   0.000   0.000   0.000
  209       -0.000  -0.000   0.000  -0.000
  210       -0.000   0.000   0.000   0.000
  211       -0.000   0.000   0.000   0.000
  212       -0.000   0.000   0.000   0.000
  213       -0.001  -0.001   0.000  -0.002
  214       -0.000  -0.000   0.000  -0.000
  215       -0.000   0.000   0.000  -0.000
tot          0.086   1.288   0.000   1.374