 vasp.5.4.4.18Apr17-6-g9f103f2a35 (build Jun 14 2024 12:30:39) gamma-only
 executed on NVIDIA22.7_CrayMPICH date 2025.02.13  16:16:56

 INCAR:
 POTCAR:   PAW_PBE Si 05Jan2001
 POTCAR:   PAW_PBE C 08Apr2002
 POTCAR:   PAW_PBE Si 05Jan2001
   VRHFIN =Si: s2p2

   TITEL  = PAW_PBE Si 05Jan2001
   POMASS =   28.085; ZVAL   =    4.000    mass and valenz
   ENMAX  =  245.345; ENMIN  =  184.009 eV
   QCUT   =   -4.246; QGAM   =    8.493    optimization parameters

   Description
     l     E      TYP  RCUT    TYP  RCUT
     0   .000     23  1.900
     0   .000     23  1.900
     1   .000     23  1.900
     1   .000     23  1.900
     2   .000      7  1.900

 POTCAR:   PAW_PBE C 08Apr2002
   VRHFIN =C: s2p2

   TITEL  = PAW_PBE C 08Apr2002
   POMASS =   12.011; ZVAL   =    4.000    mass and valenz
   ENMAX  =  400.000; ENMIN  =  300.000 eV
   QCUT   =   -5.516; QGAM   =   11.032    optimization parameters

   Description
     l     E      TYP  RCUT    TYP  RCUT
     0   .000     23  1.200
     0   .000     23  1.200
     1   .000     23  1.500
     1  2.500     23  1.500
     2   .000      7  1.500

 Optimization of the real space projectors (new method)

 maximal supplied QI-value         = 19.84
 optimisation between [QCUT,QGAM] = [ 10.12, 20.44] = [ 28.68,116.96] Ry
 Optimized for a Real-space Cutoff    1.38 Angstroem

   l    n(q)    QCUT    max X(q) W(low)/X(q) W(high)/X(q)  e(spline)
   0      8    10.119     8.708    0.16E-04    0.67E-05    0.60E-08
   0      8    10.119   106.241    0.56E-04    0.11E-03    0.54E-07
   1      8    10.119     5.901    0.16E-04    0.16E-05    0.22E-07
   1      8    10.119    73.241    0.22E-03    0.17E-03    0.18E-06
 Optimization of the real space projectors (new method)

 maximal supplied QI-value         = 25.13
 optimisation between [QCUT,QGAM] = [ 10.05, 20.36] = [ 28.30,116.06] Ry
 Optimized for a Real-space Cutoff    1.38 Angstroem

   l    n(q)    QCUT    max X(q) W(low)/X(q) W(high)/X(q)  e(spline)
   0      8    10.053     5.582    0.33E-04    0.15E-04    0.75E-07
   0      8    10.053    69.432    0.23E-03    0.38E-03    0.25E-06
   1      8    10.053     2.780    0.76E-04    0.11E-03    0.15E-06
   1      8    10.053     4.549    0.19E-03    0.19E-03    0.27E-06
 PAW_PBE Si 05Jan2001                   :
 PAW_PBE C 08Apr2002                    :

 POSCAR: generated by phonopy
  positions in direct lattice
  velocities in cartesian coordinates
 exchange correlation table for  LEXCH =        8
   RHO(1)=    0.500       N(1)  =     2000
   RHO(2)=  100.500       N(2)  =     4000

 ion  position               nearest neighbor table
   1  0.000  0.000  0.000-  26 1.98 189 1.98 136 1.98  75 1.98  82 1.98 117 1.98
   2  0.205  0.205  0.039- 189 1.54 139 1.54  91 1.54  40 1.56
   3  0.207  0.207  0.373-  41 1.53  92 1.54 140 1.54 190 1.55
   4  0.209  0.209  0.707-  42 1.53 191 1.54 141 1.54  93 1.54
   5  0.209  0.541  0.042-  94 1.53 192 1.54 142 1.54  43 1.54
   6  0.208  0.541  0.375-  95 1.53  44 1.53 143 1.54 193 1.54
   7  0.209  0.542  0.708-  45 1.54  96 1.54 144 1.54 194 1.54
   8  0.211  0.871  0.042- 136 1.51 195 1.52  97 1.53  37 1.55
   9  0.208  0.874  0.375- 196 1.53  38 1.54  98 1.54 137 1.54
  10  0.211  0.875  0.706- 138 1.53  39 1.53 197 1.53  99 1.54
  11  0.541  0.209  0.042- 148 1.53 198 1.54 100 1.54  49 1.54
  12  0.541  0.208  0.375- 149 1.53  50 1.53 101 1.54 199 1.54
  13  0.542  0.209  0.708-  51 1.54 150 1.54 102 1.54 200 1.54
  14  0.542  0.542  0.042- 103 1.53 151 1.53 201 1.54  52 1.54
  15  0.541  0.541  0.375- 104 1.54 152 1.54  53 1.54 202 1.54
  16  0.542  0.542  0.708- 153 1.53 105 1.53  54 1.54 203 1.54
  17  0.542  0.875  0.042- 145 1.53 204 1.54 106 1.54  46 1.54
  18  0.541  0.875  0.376-  47 1.53 146 1.53 205 1.54 107 1.54
  19  0.543  0.875  0.709- 147 1.53  48 1.53 108 1.54 206 1.54
  20  0.871  0.211  0.042-  82 1.51 207 1.52 157 1.53  31 1.55
  21  0.874  0.208  0.375- 208 1.53  32 1.54 158 1.54  83 1.54
  22  0.875  0.211  0.706-  84 1.53  33 1.53 209 1.53 159 1.54
  23  0.875  0.542  0.042-  85 1.53 210 1.54 160 1.54  34 1.54
  24  0.875  0.541  0.376-  35 1.53  86 1.53 211 1.54 161 1.54
  25  0.875  0.543  0.709-  87 1.53  36 1.53 162 1.54 212 1.54
  26  0.874  0.874  0.052-  88 1.51 154 1.51 213 1.54   1 1.98
  27  0.875  0.875  0.376-  29 1.53 214 1.54 155 1.54  89 1.54
  28  0.877  0.877  0.711-  30 1.53  90 1.54 156 1.54 215 1.55
  29  0.958  0.958  0.292- 163 1.53  27 1.53 115 1.55  73 1.55
  30  0.959  0.959  0.625- 164 1.53  28 1.53 116 1.54  74 1.54
  31  0.958  0.292  0.958- 165 1.53  78 1.53  20 1.55 111 1.55
  32  0.957  0.291  0.291-  21 1.54  76 1.54 166 1.54 109 1.56
  33  0.958  0.293  0.624-  22 1.53  77 1.53 167 1.54 110 1.54
  34  0.959  0.625  0.959- 168 1.53  81 1.53  23 1.54 114 1.54
  35  0.958  0.624  0.293-  79 1.53  24 1.53 169 1.54 112 1.54
  36  0.959  0.626  0.626-  25 1.53  80 1.53 170 1.54 113 1.54
  37  0.292  0.958  0.958- 171 1.53 126 1.53   8 1.55  57 1.55
  38  0.291  0.957  0.291-   9 1.54 124 1.54 172 1.54  55 1.56
  39  0.293  0.958  0.624-  10 1.53 125 1.53 173 1.54  56 1.54
  40  0.291  0.291  0.957-  60 1.54 120 1.54 174 1.54   2 1.56
  41  0.291  0.291  0.291-   3 1.53  58 1.53 118 1.53 175 1.54
  42  0.292  0.292  0.624-   4 1.53  59 1.53 119 1.53 176 1.54
  43  0.293  0.624  0.958-  63 1.53 123 1.53 177 1.54   5 1.54
  44  0.292  0.624  0.292-  61 1.53   6 1.53 121 1.53 178 1.54
  45  0.292  0.625  0.625-   7 1.54  62 1.54 122 1.54 179 1.54
  46  0.625  0.959  0.959- 180 1.53 135 1.53  17 1.54  66 1.54
  47  0.624  0.958  0.293- 133 1.53  18 1.53 181 1.54  64 1.54
  48  0.626  0.959  0.626-  19 1.53 134 1.53 182 1.54  65 1.54
  49  0.624  0.293  0.958- 129 1.53  69 1.53 183 1.54  11 1.54
  50  0.624  0.292  0.292- 127 1.53  12 1.53  67 1.53 184 1.54
  51  0.625  0.292  0.625-  13 1.54 128 1.54  68 1.54 185 1.54
  52  0.626  0.626  0.959-  72 1.53 132 1.53 186 1.54  14 1.54
  53  0.625  0.625  0.292-  70 1.54 130 1.54  15 1.54 187 1.54
  54  0.626  0.626  0.626-  16 1.54 131 1.54  71 1.54 188 1.54
  55  0.205  0.039  0.205- 136 1.54  91 1.54 190 1.54  38 1.56
  56  0.209  0.042  0.541-  92 1.53 137 1.54 191 1.54  39 1.54
  57  0.211  0.042  0.871- 189 1.51 138 1.52  93 1.53  37 1.55
  58  0.207  0.373  0.207-  41 1.53  94 1.54 193 1.54 139 1.55
  59  0.208  0.375  0.541-  95 1.53  42 1.53 194 1.54 140 1.54
  60  0.208  0.375  0.874- 141 1.53  40 1.54  96 1.54 192 1.54
[...]
 201  0.458  0.458  0.958-  69 1.53 123 1.53  14 1.54 174 1.54
 202  0.458  0.458  0.292-  67 1.53 121 1.53 175 1.54  15 1.54
 203  0.459  0.459  0.625-  68 1.54 122 1.54 176 1.54  16 1.54
 204  0.459  0.791  0.958-  72 1.53  17 1.54 126 1.54 177 1.54
 205  0.458  0.791  0.292- 178 1.54  70 1.54 124 1.54  18 1.54
 206  0.459  0.792  0.625-  71 1.53 179 1.53 125 1.54  19 1.54
 207  0.789  0.129  0.958-  75 1.51  20 1.52 129 1.53 180 1.55
 208  0.789  0.125  0.294-  73 1.53 181 1.53  21 1.53 127 1.54
 209  0.792  0.126  0.625-  22 1.53 182 1.54 128 1.54  74 1.54
 210  0.791  0.459  0.958- 132 1.53  23 1.54  78 1.54 183 1.54
 211  0.791  0.458  0.292- 184 1.54 130 1.54  76 1.54  24 1.54
 212  0.792  0.459  0.625- 131 1.53 185 1.53  77 1.54  25 1.54
 213  0.795  0.795  0.961-  26 1.54  81 1.54 135 1.54 186 1.56
 214  0.791  0.791  0.293- 187 1.53  27 1.54 133 1.54  79 1.54
 215  0.793  0.793  0.627- 188 1.53 134 1.54  80 1.54  28 1.55

IMPORTANT INFORMATION: All symmetrisations will be switched off!
NOSYMM: (Re-)initialisation of all symmetry stuff for point group C_1.

 KPOINTS: pymatgen v1.1 with grid density = 2210 /

Automatic generation of k-mesh.
Space group operators:
 irot       det(A)        alpha          n_x          n_y          n_z        tau_x        tau_y        tau_z
    1     1.000000     0.000000     1.000000     0.000000     0.000000     0.000000     0.000000     0.000000

 Subroutine IBZKPT returns following result:

 Found      1 irreducible k-points:

 Following reciprocal coordinates:
            Coordinates               Weight
  0.000000  0.000000  0.000000      1.000000

 Following cartesian coordinates:
            Coordinates               Weight
  0.000000  0.000000  0.000000      1.000000

 Subroutine IBZKPT_HF returns following result:

 Found      1 k-points in 1st BZ
 the following      1 k-points will be used (e.g. in the exchange kernel)
 Following reciprocal coordinates:   # in IRBZ
  0.000000  0.000000  0.000000    1.00000000   1 t-inv F

 SYSTEM =  unknown system
 POSCAR =  generated by phonopy

 Startparameter for this run:
   NWRITE =      2    write-flag & timer
   PREC   = accura    normal or accurate (medium, high low for compatibility)
   ISTART =      0    job   : 0-new  1-cont  2-samecut
   ICHARG =      2    charge: 1-file 2-atom 10-const
   ISPIN  =      2    spin polarized calculation?
   LNONCOLLINEAR =      F non collinear calculations
   LSORBIT =      F    spin-orbit coupling
   INIWAV =      1    electr: 0-lowe 1-rand  2-diag
   LASPH  =      F    aspherical Exc in radial PAW
   METAGGA=      F    non-selfconsistent MetaGGA calc.

 Electronic Relaxation 1
   ENCUT  =  400.0 eV  29.40 Ry    5.42 a.u.  17.36 17.36 17.36*2*pi/ulx,y,z
   ENINI  =  400.0     initial cutoff
   ENAUG  =  644.9 eV  augmentation charge cutoff
   NELM   =    100;   NELMIN=  2; NELMDL=  0     # of ELM steps
   EDIFF  = 0.1E-04   stopping-criterion for ELM
   LREAL  =      T    real-space projection
   NLSPLINE    = F    spline interpolate recip. space projectors
   LCOMPAT=      F    compatible to vasp.4.4
   GGA_COMPAT  = T    GGA compatible to vasp.4.4-vasp.4.6
   LMAXPAW     = -100 max onsite density
   LMAXMIX     =    2 max onsite mixed and CHGCAR
   VOSKOWN=      0    Vosko Wilk Nusair interpolation
   ROPT   =   -0.00025  -0.00025
 Ionic relaxation
   EDIFFG = -.1E-01   stopping-criterion for IOM
   NSW    =     99    number of steps for IOM
   NBLOCK =      1;   KBLOCK =     99    inner block; outer block
   IBRION =      2    ionic relax: 0-MD 1-quasi-New 2-CG
   NFREE  =      1    steps in history (QN), initial steepest desc. (CG)
   ISIF   =      2    stress and relaxation
   IWAVPR =     11    prediction:  0-non 1-charg 2-wave 3-comb
   ISYM   =      0    0-nonsym 1-usesym 2-fastsym
   LCORR  =      T    Harris-Foulkes like correction to forces

   POTIM  = 0.5000    time-step for ionic-motion
   TEIN   =    0.0    initial temperature
   TEBEG  =    0.0;   TEEND  =   0.0 temperature during run
   SMASS  =  -3.00    Nose mass-parameter (am)
   estimated Nose-frequenzy (Omega)   =  0.10E-29 period in steps =****** mass=  -0.259E-26a.u.
   SCALEE = 1.0000    scale energy and forces
   NPACO  =    256;   APACO  = 16.0  distance and # of slots for P.C.
   PSTRESS=    0.0 pullay stress

  Mass of Ions in am
   POMASS =  28.09 12.01
  Ionic Valenz
   ZVAL   =   4.00  4.00
  Atomic Wigner-Seitz radii
  virtual crystal weights
   VCA    =   1.00  1.00
   NELECT =     860.0000    total number of electrons
   NUPDOWN=       2.0000    fix difference up-down

 DOS related values:
   EMIN   =  10.00;   EMAX   =-10.00  energy-range for DOS
   EFERMI =   0.00
   ISMEAR =    -2;   SIGMA  =   0.05  broadening in eV -4-tet -1-fermi 0-gaus

 Electronic relaxation 2 (details)
[...]
   0.679E+01 0.799E+01 -.493E+01   -.655E+01 -.770E+01 0.488E+01   -.242E+00 -.285E+00 0.548E-01
   -.454E+01 0.166E+01 0.311E+01   0.453E+01 -.166E+01 -.319E+01   0.122E-01 0.422E-02 0.823E-01
   -.175E+01 -.101E+01 0.521E+01   0.173E+01 0.957E+00 -.532E+01   0.213E-01 0.519E-01 0.110E+00
   -.342E+01 0.412E+01 -.124E+00   0.349E+01 -.419E+01 0.149E+00   -.624E-01 0.621E-01 -.237E-01
   0.453E+00 -.360E+01 0.246E+00   -.498E+00 0.369E+01 -.225E+00   0.424E-01 -.842E-01 -.212E-01
   0.414E+00 -.121E+01 0.171E+01   -.434E+00 0.125E+01 -.175E+01   0.147E-01 -.293E-01 0.286E-01
   0.531E+00 0.442E+00 -.186E+01   -.500E+00 -.435E+00 0.186E+01   -.281E-01 -.909E-02 -.483E-02
   -.106E+00 -.613E+01 -.298E+01   0.119E+00 0.620E+01 0.307E+01   -.123E-01 -.646E-01 -.920E-01
   0.484E+00 -.221E+01 0.593E+00   -.489E+00 0.221E+01 -.617E+00   0.483E-02 0.140E-01 0.221E-01
   -.207E+01 0.252E+01 -.563E+01   0.213E+01 -.253E+01 0.573E+01   -.578E-01 0.197E-01 -.107E+00
   -.317E+02 -.521E+01 0.578E+01   0.310E+02 0.588E+01 -.634E+01   0.689E+00 -.647E+00 0.528E+00
   -.699E+01 -.450E+01 0.341E+01   0.708E+01 0.439E+01 -.331E+01   -.860E-01 0.108E+00 -.932E-01
   -.332E+01 0.921E+01 0.781E+00   0.369E+01 -.936E+01 -.645E+00   -.346E+00 0.129E+00 -.135E+00
   0.168E+01 -.519E+01 -.164E+01   -.180E+01 0.519E+01 0.166E+01   0.114E+00 0.102E-01 -.295E-01
   0.156E+01 -.469E+00 0.175E+01   -.158E+01 0.544E+00 -.167E+01   0.210E-01 -.651E-01 -.865E-01
   0.413E+01 0.252E+01 -.471E+01   -.417E+01 -.263E+01 0.471E+01   0.374E-01 0.100E+00 -.100E-01
   0.603E+01 -.728E+02 -.197E+02   -.563E+01 0.790E+02 0.216E+02   -.404E+00 -.592E+01 -.190E+01
   0.198E+01 -.679E+01 -.892E+00   -.199E+01 0.682E+01 0.818E+00   0.534E-02 -.161E-01 0.670E-01
   0.130E+01 0.140E+02 -.181E+02   -.185E+01 -.141E+02 0.182E+02   0.524E+00 0.145E+00 -.165E+00
   0.175E+01 -.259E+02 0.639E+01   -.111E+01 0.262E+02 -.646E+01   -.615E+00 -.245E+00 0.772E-01
   0.523E-01 0.106E+02 -.587E+01   -.843E-01 -.107E+02 0.588E+01   0.316E-01 0.422E-01 -.171E-01
   -.216E+02 0.145E+02 0.639E+01   0.221E+02 -.140E+02 -.647E+01   -.515E+00 -.407E+00 0.772E-01
   -.114E+02 -.652E+01 0.728E+01   0.112E+02 0.644E+01 -.711E+01   0.146E+00 0.840E-01 -.160E+00
   -.540E+01 0.237E+01 -.560E+00   0.539E+01 -.255E+01 0.557E+00   0.171E-01 0.166E+00 0.121E-02
   0.928E+01 -.529E+01 -.586E+01   -.933E+01 0.529E+01 0.588E+01   0.502E-01 0.731E-02 -.162E-01
   -.616E+00 -.582E+01 -.623E+00   0.448E+00 0.590E+01 0.622E+00   0.152E+00 -.675E-01 -.709E-04
   0.432E+01 0.246E+01 -.547E+01   -.433E+01 -.246E+01 0.523E+01   0.592E-02 0.284E-02 0.220E+00
   0.215E+02 0.124E+02 0.580E+01   -.219E+02 -.126E+02 -.575E+01   0.310E+00 0.185E+00 -.487E-01
   0.106E+02 -.854E+01 0.596E+01   -.111E+02 0.884E+01 -.618E+01   0.474E+00 -.282E+00 0.212E+00
   0.416E+01 0.335E+01 -.212E+01   -.417E+01 -.310E+01 0.223E+01   0.529E-02 -.250E+00 -.975E-01
   -.214E+01 0.134E+02 0.601E+01   0.215E+01 -.140E+02 -.622E+01   -.742E-02 0.548E+00 0.210E+00
   -.170E+01 -.934E+00 0.835E+01   0.177E+01 0.972E+00 -.839E+01   -.624E-01 -.355E-01 0.537E-01
   -.178E+01 0.212E+01 0.618E+00   0.181E+01 -.219E+01 -.637E+00   -.259E-01 0.589E-01 0.196E-01
   0.497E+01 0.192E+01 -.215E+01   -.475E+01 -.205E+01 0.226E+01   -.214E+00 0.129E+00 -.984E-01
   0.951E+00 -.255E+01 0.557E+00   -.995E+00 0.261E+01 -.576E+00   0.383E-01 -.524E-01 0.185E-01
   0.175E+01 0.974E+00 -.321E+01   -.172E+01 -.960E+00 0.324E+01   -.216E-01 -.135E-01 -.240E-01
   -.812E+01 -.469E+01 -.615E+01   0.824E+01 0.476E+01 0.607E+01   -.123E+00 -.709E-01 0.692E-01
   0.549E+00 -.670E+01 0.452E+00   -.500E+00 0.673E+01 -.609E+00   -.461E-01 -.211E-01 0.150E+00
   -.217E+01 0.291E+01 -.625E+01   0.217E+01 -.293E+01 0.644E+01   0.116E-02 0.199E-01 -.185E+00
   -.553E+01 0.386E+01 0.485E+00   0.558E+01 -.384E+01 -.642E+00   -.421E-01 -.301E-01 0.150E+00
   -.219E+01 -.121E+01 0.313E+01   0.205E+01 0.113E+01 -.313E+01   0.141E+00 0.813E-01 0.437E-02
   -.227E+01 0.274E+01 -.713E+00   0.228E+01 -.280E+01 0.749E+00   -.616E-02 0.537E-01 -.375E-01
   0.147E+01 -.336E+01 -.625E+01   -.148E+01 0.336E+01 0.644E+01   0.185E-01 -.837E-02 -.182E+00
   0.127E+01 -.330E+01 -.780E+00   -.132E+01 0.334E+01 0.817E+00   0.445E-01 -.310E-01 -.380E-01
   0.986E+00 0.541E+00 -.607E+01   -.997E+00 -.547E+00 0.615E+01   0.102E-01 0.596E-02 -.836E-01
   0.165E+02 -.132E+02 0.257E+02   -.166E+02 0.135E+02 -.266E+02   0.132E+00 -.278E+00 0.838E+00
   0.147E+01 0.237E+01 0.140E+01   -.157E+01 -.234E+01 -.143E+01   0.986E-01 -.286E-01 0.284E-01
   0.993E+01 0.321E+02 0.783E+00   -.103E+02 -.321E+02 -.216E-01   0.313E+00 -.357E-02 -.713E+00
   -.350E+01 0.141E+00 0.114E+02   0.357E+01 -.136E+00 -.115E+02   -.626E-01 -.178E-02 0.102E+00
   -.160E+01 0.126E+01 0.313E+01   0.165E+01 -.128E+01 -.312E+01   -.399E-01 0.158E-01 0.517E-02
   -.302E+01 0.899E+01 0.556E+00   0.319E+01 -.911E+01 -.698E+00   -.150E+00 0.101E+00 0.135E+00
[...]
   -.530E+00 -.441E+00 0.186E+01   0.499E+00 0.435E+00 -.186E+01   0.282E-01 0.905E-02 0.476E-02
   -.414E+00 0.121E+01 -.171E+01   0.434E+00 -.125E+01 0.175E+01   -.147E-01 0.293E-01 -.286E-01
   0.454E+01 -.166E+01 -.311E+01   -.453E+01 0.166E+01 0.319E+01   -.121E-01 -.416E-02 -.823E-01
   0.343E+01 -.412E+01 0.125E+00   -.350E+01 0.419E+01 -.149E+00   0.625E-01 -.621E-01 0.237E-01
   0.175E+01 0.101E+01 -.521E+01   -.173E+01 -.957E+00 0.532E+01   -.214E-01 -.519E-01 -.109E+00
   -.328E+02 0.748E+01 -.753E+00   0.329E+02 -.720E+01 -.874E-02   -.158E+00 -.282E+00 0.712E+00
   -.679E+01 -.799E+01 0.493E+01   0.655E+01 0.770E+01 -.487E+01   0.242E+00 0.285E+00 -.548E-01
   -.633E+01 0.709E+01 -.510E+00   0.635E+01 -.729E+01 0.652E+00   -.133E-01 0.182E+00 -.136E+00
   -.277E+01 -.947E-01 -.140E+01   0.280E+01 0.198E+00 0.142E+01   -.233E-01 -.990E-01 -.262E-01
   -.188E+01 -.259E+01 0.181E+01   0.169E+01 0.255E+01 -.172E+01   0.185E+00 0.356E-01 -.945E-01
   -.302E+00 0.199E+01 -.309E+01   0.299E+00 -.204E+01 0.308E+01   0.538E-02 0.428E-01 -.301E-02
   0.323E+01 -.209E+02 -.257E+02   -.342E+01 0.212E+02 0.265E+02   0.174E+00 -.255E+00 -.827E+00
   0.257E+01 -.106E+02 -.141E+01   -.248E+01 0.108E+02 0.131E+01   -.920E-01 -.178E+00 0.940E-01
   0.166E+01 0.304E+01 -.114E+02   -.170E+01 -.309E+01 0.115E+02   0.337E-01 0.538E-01 -.105E+00
   -.831E-03 -.713E-03 -.120E-03   -.953E-13 -.428E-12 0.240E-12   0.111E-02 0.894E-03 -.189E-03

 POSITION                                       TOTAL-FORCE (eV/Angst)
      0.00000     -0.00000     -0.00001        -0.000023      0.000037      0.000005
     -0.00824      1.44215      2.76091         0.005544      0.002732      0.003162
      0.00009     -1.44482      4.84593         0.000863     -0.001281      0.004186
     -0.00324     -4.32999      6.91272         0.004581     -0.002729      0.001619
     -2.50180      2.89589      4.86226        -0.002661     -0.000023      0.000935
     -2.50262     -0.00216      6.90830         0.001818      0.001572      0.003014
     -2.50281     -2.89038      8.96190        -0.002439     -0.002465      0.000567
     -4.98744      4.33171      6.90566        -0.004678      0.002579      0.003062
     -5.01042      1.44086      8.96037         0.000330      0.006393     -0.000944
     -4.99790     -1.42508     11.00611        -0.002228      0.000706     -0.001355
      2.50599      2.89699      4.86041        -0.000424      0.001572      0.002019
      2.50357     -0.00155      6.90517         0.001761      0.002991      0.002736
      2.50683     -2.89375      8.96390         0.002998     -0.002227      0.000103
     -0.00040      4.34593      6.91695        -0.000324      0.000020     -0.000093
      0.00013      1.44574      8.96173        -0.004555      0.004251     -0.002846
     -0.00041     -1.44558     11.01883         0.000771     -0.001568     -0.002086
     -2.50745      5.79539      8.96910         0.001244      0.001783     -0.000431
     -2.50944      2.89039     11.01307        -0.000565      0.002553     -0.000086
     -2.50451      0.00018     13.07616         0.004843      0.003749     -0.006929
      4.98163      4.35207      6.91575         0.004180     -0.002733     -0.003310
      5.01182      1.44250      8.96362         0.000732      0.000474     -0.003239
      4.99662     -1.41462     11.01210        -0.000273      0.000443     -0.004934
      2.50770      5.79152      8.96570        -0.001050      0.002329     -0.004102
      2.51112      2.88642     11.01434         0.002276      0.001429     -0.002097
      2.50409      0.00172     13.07100        -0.002679     -0.003895     -0.002163
      0.03604      7.16915     11.07451        -0.003418     -0.000342      0.000159
      0.00074      4.33367     13.06293        -0.001509      0.001256     -0.001971
      0.00062      1.45034     15.13889        -0.001491     -0.000849     -0.007549
      0.00739      5.77867     13.57415        -0.001263     -0.003914      0.003413
     -0.00087      2.90210     15.62948         0.000897      0.001786     -0.000288
      5.00753     -2.88280     13.57443        -0.001503      0.000785      0.002309
      5.00579      2.89020      9.47369        -0.001874     -0.001382      0.004824
      5.00491      0.02053     11.52400        -0.004198     -0.004233     -0.003350
      2.51315     -1.45192     15.62923         0.000564      0.000506      0.001732
      2.52026      4.32408     11.52404        -0.004680     -0.002043     -0.002705
      2.50957      1.44893     13.57885         0.000199     -0.000005      0.001721
     -5.02270     -2.90008     13.56561        -0.000315      0.001641     -0.004904
     -5.02081      2.89507      9.45739        -0.003817      0.002441      0.001919
     -5.01108      0.01433     11.52498        -0.003541     -0.001493      0.002022
     -0.00331     -5.79563      9.45763         0.000878     -0.003785      0.000952
      0.00043      0.00023      5.36018         0.000927      0.000111      0.006971
      0.00024     -2.88731      7.42301         0.003247     -0.000678     -0.001361
     -2.49277     -4.34690     11.52499        -0.004025     -0.002474      0.002261
     -2.50024      1.44381      7.42312         0.000503      0.001979     -0.002014
     -2.50447     -1.44593      9.47851         0.002985      0.001255      0.005140
     -2.50584     -1.44672     15.63551        -0.001598     -0.000627      0.001749
     -2.51500      4.33387     11.52381        -0.001722      0.003223      0.001035
     -2.50802      1.44758     13.58692         0.001501      0.001920     -0.002218
      2.49543     -4.34499     11.52379         0.003335     -0.002577      0.000725
      2.50067      1.44378      7.42175         0.003322      0.000876      0.002344
      2.50385     -1.44657      9.47742         0.000475     -0.004367     -0.003494
     -0.00040     -2.89580     13.58677         0.002914      0.000899     -0.001440
     -0.00087      2.89167      9.47751        -0.002754      0.003318     -0.002876
     -0.00070     -0.00037     11.53597        -0.000525      0.000131     -0.005595
      1.24489     -0.72793      2.76048         0.004421      0.001385      0.005825
      1.25690     -3.61481      4.86215        -0.000288     -0.001169      0.002277
      1.25746     -6.48588      6.90585         0.000556     -0.001908      0.002238
     -1.25125      0.72247      4.84617         0.000650      0.001612      0.002901
     -1.25312     -2.16630      6.90815         0.002022     -0.000080      0.004247
     -1.25742     -5.05953      8.96052         0.005026     -0.002929     -0.002915
[...]
      0.00040     -4.34593     11.52257         0.000357      0.000014      0.000063
      0.00042      1.44559      7.42069        -0.000752      0.001542      0.002064
     -0.00013     -1.44573      9.47779         0.004560     -0.004286      0.002857
     -2.50600     -2.89699     13.57911         0.000421     -0.001542     -0.002023
     -2.50683      2.89375      9.47561        -0.003011      0.002247     -0.000138
     -2.50357      0.00154     11.53435        -0.001821     -0.002992     -0.002682
      4.98743     -4.33170     11.53385         0.004665     -0.002539     -0.003054
      4.99790      1.42508      7.43340         0.002238     -0.000701      0.001342
      5.01042     -1.44086      9.47914        -0.000326     -0.006447      0.000974
      2.50180     -2.89589     13.57727         0.002674      0.000039     -0.000982
      2.50281      2.89038      9.47762         0.002439      0.002493     -0.000562
      2.50262      0.00216     11.53122        -0.001793     -0.001595     -0.003009
      0.00824     -1.44215     15.67860        -0.005562     -0.002695     -0.003148
      0.00324      4.32999     11.52680        -0.004599      0.002723     -0.001575
     -0.00009      1.44481     13.59359        -0.000813      0.001245     -0.004164
    total drift:                                0.000315      0.000211     -0.000303

  FREE ENERGIE OF THE ION-ELECTRON SYSTEM (eV)
  free  energy   TOTEN  =     -2409.68655857 eV

  energy  without entropy=    -2409.68655857  energy(sigma->0) =    -2409.68655857

 d Force = 0.7201739E-05[-0.158E-05, 0.160E-04]  d Energy = 0.1081199E-04-0.361E-05
 d Force =-0.2509510E-01[-0.251E-01,-0.251E-01]  d Ewald  =-0.2509510E-01 0.405E-10

 reached required accuracy - stopping structural energy minimisation
 writing wavefunctions

 total charge

[...]

 magnetization (x)

# of ion       s       p       d       tot
    1       -0.004   0.085   0.000   0.081
    2       -0.000  -0.000   0.000  -0.001
    3       -0.000  -0.000   0.000  -0.000
    4       -0.000   0.000   0.000   0.000
    5       -0.000   0.000   0.000  -0.000
    6        0.000   0.001   0.000   0.001
    7        0.000   0.005   0.000   0.005
    8        0.002   0.020   0.000   0.022
    9       -0.000   0.000   0.000  -0.000
   10        0.003   0.028   0.000   0.031
   11       -0.000   0.000   0.000   0.000
   12       -0.000   0.000   0.000   0.000
   13        0.000   0.001   0.000   0.001
   14        0.000   0.002   0.000   0.002
   15        0.000   0.001   0.000   0.001
   16        0.000   0.000   0.000   0.000
   17       -0.000   0.000   0.000   0.000
   18        0.000   0.002   0.000   0.002
   19        0.000   0.001   0.000   0.001
   20       -0.000   0.011   0.000   0.011
   21       -0.000  -0.001   0.000  -0.001
   22        0.000   0.003   0.000   0.004
   23        0.000   0.001   0.000   0.001
   24       -0.000   0.000   0.000   0.000
   25       -0.000   0.000   0.000   0.000
   26        0.004   0.038   0.000   0.042
   27       -0.000   0.001   0.000   0.001
   28        0.000   0.006   0.000   0.007
   29        0.000   0.003   0.000   0.003
   30       -0.000  -0.000   0.000  -0.000
   31        0.000   0.003   0.000   0.003
   32        0.003   0.026   0.000   0.030
   33        0.000   0.000   0.000   0.000
   34       -0.000  -0.000   0.000  -0.000
   35        0.000   0.000   0.000   0.000
   36        0.000   0.002   0.000   0.002
   37       -0.000  -0.000   0.000  -0.001
   38        0.000   0.003   0.000   0.004
   39        0.001   0.007   0.000   0.007
   40        0.000   0.003   0.000   0.004
   41        0.000   0.000   0.000   0.000
   42        0.000   0.000   0.000   0.000
   43        0.001   0.006   0.000   0.007
   44        0.000   0.000   0.000   0.000
   45       -0.000   0.000   0.000   0.000
   46        0.000   0.001   0.000   0.001
   47        0.000   0.004   0.000   0.004
   48       -0.000  -0.000   0.000  -0.000
   49        0.000   0.004   0.000   0.004
   50        0.000   0.003   0.000   0.003
   51        0.000   0.001   0.000   0.001
   52       -0.000   0.000   0.000  -0.000
   53        0.000   0.001   0.000   0.001
   54        0.000   0.001   0.000   0.001
   55       -0.000  -0.000   0.000  -0.001
   56       -0.000   0.000   0.000  -0.000
   57        0.002   0.020   0.000   0.022
   58       -0.000  -0.000   0.000  -0.000
   59        0.000   0.001   0.000   0.001
   60       -0.000   0.000   0.000  -0.000
[...]
  201        0.000   0.002   0.000   0.002
  202        0.000   0.000   0.000   0.000
  203        0.000   0.001   0.000   0.001
  204       -0.000   0.000   0.000   0.000
  205        0.000   0.001   0.000   0.001
  206       -0.000   0.000   0.000   0.000
  207        0.002   0.020   0.000   0.022
  208        0.003   0.028   0.000   0.031
  209       -0.000   0.000   0.000  -0.000
  210       -0.000   0.000   0.000  -0.000
  211        0.000   0.005   0.000   0.005
  212        0.000   0.001   0.000   0.001
  213       -0.000  -0.000   0.000  -0.001
  214       -0.000   0.000   0.000   0.000
  215       -0.000  -0.000   0.000  -0.000
tot          0.086   1.274   0.000   1.360