 vasp.5.4.4.18Apr17-6-g9f103f2a35 (build Jun 14 2024 12:30:39) gamma-only
 executed on NVIDIA22.7_CrayMPICH date 2025.02.13  20:12:22

 INCAR:
 POTCAR:   PAW_PBE Si 05Jan2001
 POTCAR:   PAW_PBE C 08Apr2002
 POTCAR:   PAW_PBE Si 05Jan2001
   VRHFIN =Si: s2p2

   TITEL  = PAW_PBE Si 05Jan2001
   POMASS =   28.085; ZVAL   =    4.000    mass and valenz
   ENMAX  =  245.345; ENMIN  =  184.009 eV
   QCUT   =   -4.246; QGAM   =    8.493    optimization parameters

   Description
     l     E      TYP  RCUT    TYP  RCUT
     0   .000     23  1.900
     0   .000     23  1.900
     1   .000     23  1.900
     1   .000     23  1.900
     2   .000      7  1.900

 POTCAR:   PAW_PBE C 08Apr2002
   VRHFIN =C: s2p2

   TITEL  = PAW_PBE C 08Apr2002
   POMASS =   12.011; ZVAL   =    4.000    mass and valenz
   ENMAX  =  400.000; ENMIN  =  300.000 eV
   QCUT   =   -5.516; QGAM   =   11.032    optimization parameters

   Description
     l     E      TYP  RCUT    TYP  RCUT
     0   .000     23  1.200
     0   .000     23  1.200
     1   .000     23  1.500
     1  2.500     23  1.500
     2   .000      7  1.500

 Optimization of the real space projectors (new method)

 maximal supplied QI-value         = 19.84
 optimisation between [QCUT,QGAM] = [ 10.12, 20.44] = [ 28.68,116.96] Ry
 Optimized for a Real-space Cutoff    1.38 Angstroem

   l    n(q)    QCUT    max X(q) W(low)/X(q) W(high)/X(q)  e(spline)
   0      8    10.119     8.708    0.16E-04    0.67E-05    0.60E-08
   0      8    10.119   106.241    0.56E-04    0.11E-03    0.54E-07
   1      8    10.119     5.901    0.16E-04    0.16E-05    0.22E-07
   1      8    10.119    73.241    0.22E-03    0.17E-03    0.18E-06
 Optimization of the real space projectors (new method)

 maximal supplied QI-value         = 25.13
 optimisation between [QCUT,QGAM] = [ 10.05, 20.36] = [ 28.30,116.06] Ry
 Optimized for a Real-space Cutoff    1.38 Angstroem

   l    n(q)    QCUT    max X(q) W(low)/X(q) W(high)/X(q)  e(spline)
   0      8    10.053     5.582    0.33E-04    0.15E-04    0.75E-07
   0      8    10.053    69.432    0.23E-03    0.38E-03    0.25E-06
   1      8    10.053     2.780    0.76E-04    0.11E-03    0.15E-06
   1      8    10.053     4.549    0.19E-03    0.19E-03    0.27E-06
 PAW_PBE Si 05Jan2001                   :
 PAW_PBE C 08Apr2002                    :

 POSCAR: generated by phonopy
  positions in direct lattice
  velocities in cartesian coordinates
 exchange correlation table for  LEXCH =        8
   RHO(1)=    0.500       N(1)  =     2000
   RHO(2)=  100.500       N(2)  =     4000

 ion  position               nearest neighbor table
   1  0.000  0.000  0.000-  26 1.98 189 1.98 136 1.98  75 1.98  82 1.98 117 1.98
   2  0.205  0.205  0.039- 189 1.54 139 1.54  91 1.54  40 1.56
   3  0.207  0.207  0.373-  41 1.53  92 1.54 140 1.54 190 1.55
   4  0.209  0.209  0.707-  42 1.53 191 1.54 141 1.54  93 1.54
   5  0.209  0.541  0.042-  94 1.53 192 1.54 142 1.54  43 1.54
   6  0.208  0.541  0.375-  95 1.53  44 1.53 143 1.54 193 1.54
   7  0.209  0.542  0.708-  45 1.54  96 1.54 144 1.54 194 1.54
   8  0.211  0.871  0.042- 136 1.51 195 1.52  97 1.53  37 1.55
   9  0.208  0.874  0.375- 196 1.53  38 1.54  98 1.54 137 1.54
  10  0.211  0.875  0.706- 138 1.53  39 1.53 197 1.53  99 1.54
  11  0.541  0.209  0.042- 148 1.53 198 1.54 100 1.54  49 1.54
  12  0.541  0.208  0.375- 149 1.53  50 1.53 101 1.54 199 1.54
  13  0.542  0.209  0.708-  51 1.54 150 1.54 102 1.54 200 1.54
  14  0.542  0.542  0.042- 103 1.53 151 1.53 201 1.54  52 1.54
  15  0.541  0.541  0.375- 104 1.54 152 1.54  53 1.54 202 1.54
  16  0.542  0.542  0.708- 153 1.53 105 1.53  54 1.54 203 1.54
  17  0.542  0.875  0.042- 145 1.53 204 1.54 106 1.54  46 1.54
  18  0.541  0.875  0.376-  47 1.53 146 1.53 205 1.54 107 1.54
  19  0.543  0.875  0.709- 147 1.53  48 1.53 108 1.54 206 1.54
  20  0.871  0.211  0.042-  82 1.51 207 1.52 157 1.53  31 1.55
  21  0.874  0.208  0.375- 208 1.53  32 1.54 158 1.54  83 1.54
  22  0.875  0.211  0.706-  84 1.53  33 1.53 209 1.53 159 1.54
  23  0.875  0.542  0.042-  85 1.53 210 1.54 160 1.54  34 1.54
  24  0.875  0.541  0.376-  35 1.53  86 1.53 211 1.54 161 1.54
  25  0.875  0.543  0.709-  87 1.53  36 1.53 162 1.54 212 1.54
  26  0.874  0.874  0.052-  88 1.51 154 1.51 213 1.54   1 1.98
  27  0.875  0.875  0.376-  29 1.53 214 1.54 155 1.54  89 1.54
  28  0.877  0.877  0.711-  30 1.53  90 1.54 156 1.54 215 1.55
  29  0.958  0.958  0.292- 163 1.53  27 1.53 115 1.55  73 1.55
  30  0.959  0.959  0.625- 164 1.53  28 1.53 116 1.54  74 1.54
  31  0.958  0.292  0.958- 165 1.53  78 1.53  20 1.55 111 1.55
  32  0.957  0.291  0.291-  21 1.54  76 1.54 166 1.54 109 1.56
  33  0.958  0.293  0.624-  22 1.53  77 1.53 167 1.54 110 1.54
  34  0.959  0.625  0.959- 168 1.53  81 1.53  23 1.54 114 1.54
  35  0.958  0.624  0.293-  79 1.53  24 1.53 169 1.54 112 1.54
  36  0.959  0.626  0.626-  25 1.53  80 1.53 170 1.54 113 1.54
  37  0.292  0.958  0.958- 171 1.53 126 1.53   8 1.55  57 1.55
  38  0.291  0.957  0.291-   9 1.54 124 1.54 172 1.54  55 1.56
  39  0.293  0.958  0.624-  10 1.53 125 1.53 173 1.54  56 1.54
  40  0.291  0.291  0.957-  60 1.54 120 1.54 174 1.54   2 1.56
  41  0.291  0.291  0.291-   3 1.53  58 1.53 118 1.53 175 1.54
  42  0.292  0.292  0.624-   4 1.53  59 1.53 119 1.53 176 1.54
  43  0.293  0.624  0.958-  63 1.53 123 1.53 177 1.54   5 1.54
  44  0.292  0.624  0.292-  61 1.53   6 1.53 121 1.53 178 1.54
  45  0.292  0.625  0.625-   7 1.54  62 1.54 122 1.54 179 1.54
  46  0.625  0.959  0.959- 180 1.53 135 1.53  17 1.54  66 1.54
  47  0.624  0.958  0.293- 133 1.53  18 1.53 181 1.54  64 1.54
  48  0.626  0.959  0.626-  19 1.53 134 1.53 182 1.54  65 1.54
  49  0.624  0.293  0.958- 129 1.53  69 1.53 183 1.54  11 1.54
  50  0.624  0.292  0.292- 127 1.53  12 1.53  67 1.53 184 1.54
  51  0.625  0.292  0.625-  13 1.54 128 1.54  68 1.54 185 1.54
  52  0.626  0.626  0.959-  72 1.53 132 1.53 186 1.54  14 1.54
  53  0.625  0.625  0.292-  70 1.54 130 1.54  15 1.54 187 1.54
  54  0.626  0.626  0.626-  16 1.54 131 1.54  71 1.54 188 1.54
  55  0.205  0.039  0.205- 136 1.54  91 1.54 190 1.54  38 1.56
  56  0.209  0.042  0.541-  92 1.53 137 1.54 191 1.54  39 1.54
  57  0.211  0.042  0.871- 189 1.51 138 1.52  93 1.53  37 1.55
  58  0.207  0.373  0.207-  41 1.53  94 1.54 193 1.54 139 1.55
  59  0.208  0.375  0.541-  95 1.53  42 1.53 194 1.54 140 1.54
  60  0.208  0.375  0.874- 141 1.53  40 1.54  96 1.54 192 1.54
[...]
 201  0.458  0.458  0.958-  69 1.53 123 1.53  14 1.54 174 1.54
 202  0.458  0.458  0.292-  67 1.53 121 1.53 175 1.54  15 1.54
 203  0.459  0.459  0.625-  68 1.54 122 1.54 176 1.54  16 1.54
 204  0.459  0.791  0.958-  72 1.53  17 1.54 126 1.54 177 1.54
 205  0.458  0.791  0.292- 178 1.54  70 1.54 124 1.54  18 1.54
 206  0.459  0.792  0.625-  71 1.53 179 1.53 125 1.54  19 1.54
 207  0.789  0.129  0.958-  75 1.51  20 1.52 129 1.53 180 1.55
 208  0.789  0.125  0.294-  73 1.53 181 1.53  21 1.53 127 1.54
 209  0.792  0.126  0.625-  22 1.53 182 1.54 128 1.54  74 1.54
 210  0.791  0.459  0.958- 132 1.53  23 1.54  78 1.54 183 1.54
 211  0.791  0.458  0.292- 184 1.54 130 1.54  76 1.54  24 1.54
 212  0.792  0.459  0.625- 131 1.53 185 1.53  77 1.54  25 1.54
 213  0.795  0.795  0.961-  26 1.54  81 1.54 135 1.54 186 1.56
 214  0.791  0.791  0.293- 187 1.53  27 1.54 133 1.54  79 1.54
 215  0.793  0.793  0.627- 188 1.53 134 1.54  80 1.54  28 1.55

IMPORTANT INFORMATION: All symmetrisations will be switched off!
NOSYMM: (Re-)initialisation of all symmetry stuff for point group C_1.

 KPOINTS: pymatgen v1.1 with grid density = 2210 /

Automatic generation of k-mesh.
Space group operators:
 irot       det(A)        alpha          n_x          n_y          n_z        tau_x        tau_y        tau_z
    1     1.000000     0.000000     1.000000     0.000000     0.000000     0.000000     0.000000     0.000000

 Subroutine IBZKPT returns following result:

 Found      1 irreducible k-points:

 Following reciprocal coordinates:
            Coordinates               Weight
  0.000000  0.000000  0.000000      1.000000

 Following cartesian coordinates:
            Coordinates               Weight
  0.000000  0.000000  0.000000      1.000000

 Subroutine IBZKPT_HF returns following result:

 Found      1 k-points in 1st BZ
 the following      1 k-points will be used (e.g. in the exchange kernel)
 Following reciprocal coordinates:   # in IRBZ
  0.000000  0.000000  0.000000    1.00000000   1 t-inv F

 SYSTEM =  unknown system
 POSCAR =  generated by phonopy

 Startparameter for this run:
   NWRITE =      2    write-flag & timer
   PREC   = accura    normal or accurate (medium, high low for compatibility)
   ISTART =      1    job   : 0-new  1-cont  2-samecut
   ICHARG =      2    charge: 1-file 2-atom 10-const
   ISPIN  =      2    spin polarized calculation?
   LNONCOLLINEAR =      F non collinear calculations
   LSORBIT =      F    spin-orbit coupling
   INIWAV =      1    electr: 0-lowe 1-rand  2-diag
   LASPH  =      F    aspherical Exc in radial PAW
   METAGGA=      F    non-selfconsistent MetaGGA calc.

 Electronic Relaxation 1
   ENCUT  =  400.0 eV  29.40 Ry    5.42 a.u.  17.36 17.36 17.36*2*pi/ulx,y,z
   ENINI  =  400.0     initial cutoff
   ENAUG  =  644.9 eV  augmentation charge cutoff
   NELM   =    100;   NELMIN=  2; NELMDL=  0     # of ELM steps
   EDIFF  = 0.1E-04   stopping-criterion for ELM
   LREAL  =      T    real-space projection
   NLSPLINE    = F    spline interpolate recip. space projectors
   LCOMPAT=      F    compatible to vasp.4.4
   GGA_COMPAT  = T    GGA compatible to vasp.4.4-vasp.4.6
   LMAXPAW     = -100 max onsite density
   LMAXMIX     =    2 max onsite mixed and CHGCAR
   VOSKOWN=      0    Vosko Wilk Nusair interpolation
   ROPT   =   -0.00025  -0.00025
 Ionic relaxation
   EDIFFG = -.1E-01   stopping-criterion for IOM
   NSW    =     99    number of steps for IOM
   NBLOCK =      1;   KBLOCK =     99    inner block; outer block
   IBRION =      2    ionic relax: 0-MD 1-quasi-New 2-CG
   NFREE  =      1    steps in history (QN), initial steepest desc. (CG)
   ISIF   =      2    stress and relaxation
   IWAVPR =     11    prediction:  0-non 1-charg 2-wave 3-comb
   ISYM   =      0    0-nonsym 1-usesym 2-fastsym
   LCORR  =      T    Harris-Foulkes like correction to forces

   POTIM  = 0.5000    time-step for ionic-motion
   TEIN   =    0.0    initial temperature
   TEBEG  =    0.0;   TEEND  =   0.0 temperature during run
   SMASS  =  -3.00    Nose mass-parameter (am)
   estimated Nose-frequenzy (Omega)   =  0.10E-29 period in steps =****** mass=  -0.259E-26a.u.
   SCALEE = 1.0000    scale energy and forces
   NPACO  =    256;   APACO  = 16.0  distance and # of slots for P.C.
   PSTRESS=    0.0 pullay stress

  Mass of Ions in am
   POMASS =  28.09 12.01
  Ionic Valenz
   ZVAL   =   4.00  4.00
  Atomic Wigner-Seitz radii
  virtual crystal weights
   VCA    =   1.00  1.00
   NELECT =     860.0000    total number of electrons
   NUPDOWN=       2.0000    fix difference up-down

 DOS related values:
   EMIN   =  10.00;   EMAX   =-10.00  energy-range for DOS
   EFERMI =   0.00
   ISMEAR =    -2;   SIGMA  =   0.05  broadening in eV -4-tet -1-fermi 0-gaus

 Electronic relaxation 2 (details)
[...]
   0.519E+01 0.754E+01 -.138E+01   -.542E+01 -.761E+01 0.152E+01   0.215E+00 0.535E-01 -.135E+00
   -.373E+01 0.128E+01 0.240E+01   0.375E+01 -.133E+01 -.245E+01   -.103E-01 0.443E-01 0.531E-01
   -.133E+01 -.820E+00 0.420E+01   0.133E+01 0.833E+00 -.424E+01   0.323E-02 -.101E-01 0.346E-01
   -.314E+01 0.269E+01 -.326E+00   0.312E+01 -.270E+01 0.290E+00   0.252E-01 0.906E-02 0.360E-01
   0.140E+00 -.367E+01 0.315E+00   -.103E+00 0.374E+01 -.291E+00   -.328E-01 -.637E-01 -.247E-01
   -.174E-01 -.828E+00 0.141E+01   0.188E-01 0.860E+00 -.145E+01   -.207E-02 -.265E-01 0.392E-01
   -.118E-01 -.346E+00 -.162E+01   0.148E-01 0.344E+00 0.163E+01   -.143E-02 0.166E-04 -.947E-02
   -.677E+00 -.560E+01 -.240E+01   0.730E+00 0.566E+01 0.246E+01   -.491E-01 -.506E-01 -.602E-01
   -.149E+00 -.100E+01 0.529E+00   0.175E+00 0.101E+01 -.493E+00   -.252E-01 -.711E-02 -.340E-01
   -.317E+01 0.164E+01 -.499E+01   0.322E+01 -.170E+01 0.504E+01   -.480E-01 0.530E-01 -.489E-01
   -.308E+02 -.658E+01 0.228E+01   0.309E+02 0.639E+01 -.204E+01   -.964E-01 0.171E+00 -.213E+00
   -.684E+01 -.518E+01 0.131E+01   0.692E+01 0.525E+01 -.140E+01   -.746E-01 -.700E-01 0.883E-01
   -.536E+01 0.816E+01 -.671E+00   0.549E+01 -.816E+01 0.739E+00   -.115E+00 -.251E-01 -.654E-01
   0.796E+00 -.553E+01 -.220E+01   -.843E+00 0.560E+01 0.226E+01   0.412E-01 -.669E-01 -.619E-01
   0.367E+00 -.570E+00 0.615E+00   -.358E+00 0.628E+00 -.580E+00   -.969E-02 -.532E-01 -.346E-01
   0.342E+01 0.165E+01 -.471E+01   -.346E+01 -.171E+01 0.479E+01   0.408E-01 0.561E-01 -.809E-01
   0.103E+01 -.727E+02 -.209E+02   -.797E+00 0.788E+02 0.228E+02   -.229E+00 -.583E+01 -.189E+01
   0.133E+00 -.621E+01 -.205E+01   -.123E+00 0.629E+01 0.201E+01   -.943E-02 -.792E-01 0.385E-01
   0.365E+00 0.134E+02 -.170E+02   -.278E+00 -.136E+02 0.172E+02   -.817E-01 0.185E+00 -.232E+00
   -.215E+00 -.253E+02 0.514E+01   0.156E+00 0.257E+02 -.527E+01   0.567E-01 -.356E+00 0.133E+00
   0.195E+00 0.102E+02 -.530E+01   -.192E+00 -.102E+02 0.536E+01   -.231E-02 0.561E-01 -.620E-01
   -.215E+02 0.129E+02 0.607E+01   0.220E+02 -.130E+02 -.619E+01   -.470E+00 0.822E-01 0.113E+00
   -.119E+02 -.680E+01 0.590E+01   0.122E+02 0.701E+01 -.603E+01   -.295E+00 -.198E+00 0.124E+00
   -.484E+01 0.218E+01 -.257E+00   0.485E+01 -.221E+01 0.326E+00   -.827E-03 0.124E-01 -.634E-01
   0.845E+01 -.532E+01 -.525E+01   -.855E+01 0.537E+01 0.530E+01   0.893E-01 -.367E-01 -.558E-01
   -.940E+00 -.524E+01 -.766E+00   0.822E+00 0.534E+01 0.709E+00   0.107E+00 -.840E-01 0.558E-01
   0.344E+01 0.190E+01 -.609E+01   -.345E+01 -.193E+01 0.610E+01   0.120E-01 0.297E-01 -.191E-01
   0.214E+02 0.130E+02 0.563E+01   -.218E+02 -.130E+02 -.568E+01   0.409E+00 -.200E-01 0.521E-01
   0.119E+02 -.714E+01 0.612E+01   -.122E+02 0.725E+01 -.618E+01   0.225E+00 -.110E+00 0.679E-01
   0.486E+01 0.222E+01 -.765E+00   -.490E+01 -.226E+01 0.750E+00   0.279E-01 0.251E-01 0.137E-01
   -.306E+00 0.133E+02 0.533E+01   0.261E+00 -.138E+02 -.553E+01   0.415E-01 0.545E+00 0.202E+00
   -.167E+00 -.420E-02 0.809E+01   0.157E+00 0.335E-01 -.815E+01   0.125E-01 -.277E-01 0.706E-01
   -.183E+00 0.160E+01 0.139E+01   0.175E+00 -.167E+01 -.141E+01   0.650E-02 0.644E-01 0.271E-01
   0.475E+01 0.307E+01 -.104E+01   -.478E+01 -.311E+01 0.963E+00   0.166E-01 0.354E-01 0.724E-01
   0.171E+01 -.118E+01 0.128E+01   -.169E+01 0.118E+01 -.130E+01   -.234E-01 0.703E-02 0.259E-01
   0.236E+01 0.123E+01 -.158E+01   -.238E+01 -.127E+01 0.164E+01   0.844E-02 0.339E-01 -.598E-01
   -.841E+01 -.544E+01 -.543E+01   0.852E+01 0.549E+01 0.540E+01   -.981E-01 -.442E-01 0.133E-01
   0.743E+00 -.553E+01 -.597E+00   -.662E+00 0.557E+01 0.553E+00   -.761E-01 -.268E-01 0.426E-01
   -.321E+01 0.207E+01 -.625E+01   0.322E+01 -.206E+01 0.627E+01   -.184E-01 -.318E-02 -.182E-01
   -.502E+01 0.306E+01 -.392E+00   0.496E+01 -.307E+01 0.409E+00   0.668E-01 0.160E-01 -.166E-01
   -.158E+01 -.907E+00 0.153E+01   0.159E+01 0.930E+00 -.156E+01   -.126E-01 -.192E-01 0.288E-01
   -.244E+01 0.150E+01 -.149E+01   0.245E+01 -.150E+01 0.153E+01   -.104E-01 0.101E-02 -.396E-01
   0.271E+00 -.376E+01 -.584E+01   -.237E+00 0.377E+01 0.601E+01   -.317E-01 -.130E-01 -.167E+00
   0.204E+00 -.251E+01 -.130E+01   -.175E+00 0.255E+01 0.135E+01   -.289E-01 -.434E-01 -.467E-01
   0.548E-01 0.134E-01 -.631E+01   -.582E-01 -.166E-01 0.640E+01   0.173E-02 0.396E-02 -.897E-01
   0.182E+02 -.108E+02 0.238E+02   -.186E+02 0.111E+02 -.240E+02   0.367E+00 -.321E+00 0.226E+00
   0.271E+01 0.211E+01 0.254E+01   -.276E+01 -.216E+01 -.253E+01   0.482E-01 0.414E-01 -.740E-02
   0.894E+01 0.305E+02 0.191E+01   -.937E+01 -.305E+02 -.169E+01   0.396E+00 -.904E-01 -.206E+00
   -.210E+01 0.123E+01 0.123E+02   0.214E+01 -.124E+01 -.125E+02   -.382E-01 0.140E-01 0.232E+00
   -.164E+00 0.129E+01 0.407E+01   0.180E+00 -.132E+01 -.411E+01   -.133E-01 0.262E-01 0.394E-01
   -.111E+01 0.853E+01 0.985E+00   0.120E+01 -.868E+01 -.109E+01   -.882E-01 0.138E+00 0.985E-01
[...]
   0.143E-01 0.345E+00 0.162E+01   -.171E-01 -.344E+00 -.163E+01   0.132E-02 -.106E-03 0.961E-02
   0.190E-01 0.827E+00 -.141E+01   -.202E-01 -.860E+00 0.145E+01   0.215E-02 0.270E-01 -.389E-01
   0.373E+01 -.128E+01 -.240E+01   -.375E+01 0.133E+01 0.245E+01   0.109E-01 -.444E-01 -.538E-01
   0.314E+01 -.269E+01 0.327E+00   -.312E+01 0.270E+01 -.290E+00   -.255E-01 -.865E-02 -.362E-01
   0.133E+01 0.819E+00 -.420E+01   -.133E+01 -.832E+00 0.424E+01   -.338E-02 0.991E-02 -.346E-01
   -.313E+02 0.617E+01 -.807E+00   0.310E+02 -.629E+01 0.954E+00   0.268E+00 0.124E+00 -.151E+00
   -.519E+01 -.755E+01 0.138E+01   0.543E+01 0.762E+01 -.152E+01   -.215E+00 -.525E-01 0.134E+00
   -.704E+01 0.559E+01 -.140E+01   0.712E+01 -.563E+01 0.144E+01   -.685E-01 0.330E-01 -.392E-01
   -.347E+01 -.123E+01 -.206E+01   0.352E+01 0.127E+01 0.211E+01   -.460E-01 -.374E-01 -.459E-01
   -.292E+01 -.250E+01 0.417E+00   0.290E+01 0.255E+01 -.392E+00   0.181E-01 -.461E-01 -.253E-01
   -.118E+01 0.894E+00 -.398E+01   0.118E+01 -.897E+00 0.406E+01   0.417E-02 0.253E-02 -.774E-01
   0.395E+00 -.221E+02 -.231E+02   -.386E+00 0.224E+02 0.240E+02   -.105E-01 -.284E+00 -.862E+00
   0.326E+00 -.940E+01 -.237E+01   -.257E+00 0.964E+01 0.229E+01   -.615E-01 -.219E+00 0.716E-01
   0.246E+00 0.238E+01 -.124E+02   -.236E+00 -.244E+01 0.125E+02   -.111E-01 0.604E-01 -.144E+00
   0.290E-01 0.131E-01 0.270E-01   -.466E-13 0.146E-12 0.782E-13   -.273E-01 -.147E-01 -.195E-01

 POSITION                                       TOTAL-FORCE (eV/Angst)
     -0.00000     -0.00001     -0.00007        -0.000082     -0.000308     -0.000145
      0.00007      1.44618      2.75851         0.001635      0.003607     -0.003933
     -0.00036     -1.44326      4.84131         0.001252     -0.002120      0.001452
     -0.00065     -4.33179      6.91373        -0.004768     -0.001450     -0.001996
     -2.50281      2.89587      4.86088         0.000955     -0.000380     -0.001255
     -2.50299     -0.00210      6.90620         0.000839      0.000267      0.000718
     -2.50461     -2.89182      8.96213         0.000502      0.000982      0.000308
     -4.97398      4.34265      6.90577         0.003750     -0.007119      0.002154
     -5.01225      1.44270      8.95958        -0.000342      0.001970      0.000020
     -4.99887     -1.42312     11.01189        -0.004363     -0.001852      0.000229
      2.50233      2.89623      4.86092         0.000553     -0.002863      0.001977
      2.50260     -0.00210      6.90676        -0.000954      0.001730     -0.002047
      2.50393     -2.89197      8.96226         0.000926      0.000578      0.000852
     -0.00034      4.34565      6.91680         0.001891      0.000435     -0.000924
     -0.00030      1.44586      8.96162        -0.001229      0.002617      0.001293
      0.00001     -1.44538     11.01872         0.001393      0.000195     -0.000035
     -2.50747      5.79325      8.96742         0.001430     -0.001725      0.004554
     -2.50966      2.88805     11.01403        -0.001810     -0.000330      0.001033
     -2.50331      0.00131     13.07412         0.001416     -0.001985     -0.002570
      4.97300      4.34029      6.91151         0.000523     -0.003246      0.002649
      5.01308      1.44353      8.95883         0.000508     -0.001161     -0.001597
      4.99845     -1.42199     11.01164         0.003150     -0.004792     -0.000974
      2.50732      5.79368      8.96772        -0.004244     -0.003171     -0.001952
      2.51028      2.88852     11.01413         0.000126     -0.001845     -0.000734
      2.50357      0.00111     13.07480         0.000860     -0.002390     -0.000167
      0.00370      7.15333     11.06472        -0.003842      0.001893      0.003402
     -0.00011      4.33656     13.06178        -0.000696     -0.002439     -0.004836
      0.00114      1.44637     15.14740         0.001164      0.003550      0.005062
     -0.00099      5.78418     13.56910        -0.000282      0.004987      0.000532
     -0.00031      2.89941     15.63398         0.000581     -0.009004      0.001493
      5.01171     -2.89194     13.56924         0.002325      0.002573     -0.002800
      5.01453      2.89523      9.46141         0.004849      0.002673     -0.004545
      5.00870      0.01629     11.52542        -0.000094     -0.000503      0.001766
      2.51041     -1.45009     15.63377        -0.003034      0.004843     -0.000166
      2.51780      4.32906     11.52381        -0.001778      0.002309      0.001436
      2.50774      1.44757     13.58557         0.000600      0.001183     -0.001490
     -5.01164     -2.89094     13.57012         0.001148      0.002877      0.003033
     -5.01477      2.89493      9.46018        -0.004627     -0.000591     -0.003794
     -5.00832      0.01627     11.52431        -0.000397      0.001201     -0.000537
     -0.00042     -5.79277      9.45906        -0.001618     -0.003445     -0.000292
     -0.00025      0.00031      5.35857         0.002169      0.000102      0.004826
     -0.00005     -2.88783      7.42249        -0.000419      0.000176     -0.003971
     -2.48981     -4.34593     11.52379        -0.000634      0.000165     -0.000305
     -2.49987      1.44333      7.42229        -0.001638      0.001163      0.000289
     -2.50425     -1.44634      9.47816         0.000060      0.000268     -0.002652
     -2.51049     -1.44964     15.63324         0.004536      0.001731     -0.000577
     -2.51741      4.32970     11.52411        -0.002596     -0.001511      0.000364
     -2.50736      1.44786     13.58564        -0.000815      0.002323      0.000102
      2.49080     -4.34621     11.52515        -0.002092      0.000571     -0.000599
      2.50034      1.44363      7.42242         0.000758      0.000921     -0.004696
      2.50449     -1.44578      9.47824        -0.000953     -0.000947      0.000442
      0.00046     -2.89596     13.58696         0.000613     -0.000866      0.001109
      0.00061      2.89196      9.47819        -0.001467     -0.003436     -0.001595
      0.00000     -0.00019     11.53662        -0.001748      0.000727      0.003620
      1.24971     -0.72036      2.76337         0.003011     -0.004986     -0.003709
      1.25663     -3.61548      4.86160         0.000858      0.000488     -0.000621
      1.26825     -6.47467      6.91078        -0.004218     -0.000707     -0.000644
     -1.25015      0.72184      4.84022        -0.001483      0.001420     -0.002327
     -1.25330     -2.16678      6.90671         0.003117     -0.000451     -0.000155
     -1.25601     -5.06245      8.95926         0.000670     -0.002817     -0.000092
[...]
      0.00034     -4.34564     11.52272        -0.002194     -0.000684      0.000882
     -0.00001      1.44538      7.42080        -0.001333     -0.000122      0.000011
      0.00030     -1.44585      9.47790         0.001489     -0.002788     -0.001221
     -2.50233     -2.89623     13.57860        -0.000604      0.002548     -0.001921
     -2.50393      2.89198      9.47725        -0.001150     -0.000450     -0.000677
     -2.50259      0.00210     11.53276         0.001098     -0.001679      0.001951
      4.97400     -4.34269     11.53377        -0.002486      0.006980     -0.002235
      4.99886      1.42311      7.42763         0.004222      0.001609     -0.000208
      5.01225     -1.44269      9.47993         0.000278     -0.001688     -0.000411
      2.50279     -2.89588     13.57864        -0.000857      0.000479      0.001378
      2.50461      2.89182      9.47738        -0.000263     -0.001071     -0.000195
      2.50299      0.00210     11.53332        -0.000953     -0.000033     -0.000549
     -0.00003     -1.44619     15.68105        -0.002022     -0.003750      0.003823
      0.00067      4.33179     11.52578         0.004780      0.001835      0.001828
      0.00037      1.44327     13.59822        -0.001630      0.002219     -0.001374
    total drift:                                0.000222     -0.002246      0.006459

  FREE ENERGIE OF THE ION-ELECTRON SYSTEM (eV)
  free  energy   TOTEN  =     -2409.30650198 eV

  energy  without entropy=    -2409.30650198  energy(sigma->0) =    -2409.30650198

 d Force = 0.2582032E-04[ 0.192E-04, 0.325E-04]  d Energy = 0.8530312E-05 0.173E-04
 d Force = 0.1712630E-01[ 0.171E-01, 0.171E-01]  d Ewald  = 0.1712630E-01-0.627E-09

 reached required accuracy - stopping structural energy minimisation
 writing wavefunctions

 total charge

[...]

 magnetization (x)

# of ion       s       p       d       tot
    1       -0.016   0.056   0.000   0.039
    2       -0.001   0.000   0.000  -0.001
    3       -0.000   0.000   0.000  -0.000
    4       -0.000   0.000   0.000  -0.000
    5       -0.000   0.001   0.000   0.000
    6        0.000   0.001   0.000   0.001
    7        0.000   0.005   0.000   0.005
    8        0.001   0.018   0.000   0.018
    9       -0.000   0.000   0.000  -0.000
   10        0.001   0.012   0.000   0.013
   11       -0.000   0.001   0.000   0.001
   12       -0.000   0.001   0.000   0.001
   13        0.000   0.003   0.000   0.004
   14        0.000   0.003   0.000   0.003
   15        0.000   0.001   0.000   0.001
   16        0.000   0.001   0.000   0.001
   17        0.000   0.001   0.000   0.001
   18        0.000   0.002   0.000   0.002
   19        0.000   0.002   0.000   0.002
   20        0.000   0.012   0.000   0.012
   21       -0.000   0.002   0.000   0.001
   22        0.002   0.014   0.000   0.015
   23        0.000   0.001   0.000   0.001
   24        0.000   0.002   0.000   0.002
   25       -0.000   0.000   0.000   0.000
   26        0.008   0.070   0.000   0.077
   27        0.000   0.002   0.000   0.002
   28        0.000   0.007   0.000   0.007
   29        0.000   0.003   0.000   0.003
   30       -0.000   0.001   0.000   0.000
   31        0.000   0.002   0.000   0.002
   32        0.001   0.016   0.000   0.017
   33        0.000   0.003   0.000   0.003
   34       -0.000   0.001   0.000   0.000
   35        0.000   0.002   0.000   0.002
   36        0.000   0.000   0.000   0.001
   37       -0.000   0.004   0.000   0.004
   38        0.001   0.014   0.000   0.015
   39        0.000   0.004   0.000   0.004
   40        0.001   0.008   0.000   0.009
   41       -0.000   0.001   0.000   0.001
   42        0.000   0.001   0.000   0.001
   43        0.000   0.005   0.000   0.005
   44        0.000   0.002   0.000   0.003
   45       -0.000   0.001   0.000   0.001
   46       -0.000   0.000   0.000   0.000
   47        0.000   0.005   0.000   0.005
   48        0.000   0.002   0.000   0.002
   49        0.000   0.007   0.000   0.007
   50        0.000   0.001   0.000   0.001
   51        0.000   0.001   0.000   0.002
   52        0.000   0.001   0.000   0.001
   53        0.000   0.001   0.000   0.001
   54        0.000   0.002   0.000   0.002
   55       -0.001   0.000   0.000  -0.001
   56       -0.000   0.001   0.000   0.001
   57        0.001   0.014   0.000   0.015
   58       -0.000   0.000   0.000  -0.000
   59        0.000   0.001   0.000   0.001
   60       -0.000  -0.000   0.000  -0.000
[...]
  201        0.000   0.003   0.000   0.003
  202        0.000   0.001   0.000   0.001
  203        0.000   0.001   0.000   0.001
  204       -0.000   0.001   0.000   0.001
  205        0.000   0.003   0.000   0.004
  206       -0.000   0.001   0.000   0.001
  207        0.001   0.018   0.000   0.018
  208        0.001   0.012   0.000   0.013
  209       -0.000   0.000   0.000  -0.000
  210       -0.000   0.000   0.000   0.000
  211        0.000   0.005   0.000   0.005
  212        0.000   0.001   0.000   0.001
  213       -0.001   0.000   0.000  -0.001
  214       -0.000   0.000   0.000  -0.000
  215       -0.000   0.000   0.000  -0.000
tot          0.070   1.338   0.000   1.407