 vasp.5.4.4.18Apr17-6-g9f103f2a35 (build Dec 19 2024 10:44:08) gamma-only
 executed on NVIDIA22.7_CrayMPICH date 2025.04.27  12:23:59

 INCAR:
 POTCAR:   PAW_PBE Si 05Jan2001
 POTCAR:   PAW_PBE C 08Apr2002
 POTCAR:   PAW_PBE Si 05Jan2001
   VRHFIN =Si: s2p2

   TITEL  = PAW_PBE Si 05Jan2001
   POMASS =   28.085; ZVAL   =    4.000    mass and valenz
   ENMAX  =  245.345; ENMIN  =  184.009 eV
   QCUT   =   -4.246; QGAM   =    8.493    optimization parameters

   Description
     l     E      TYP  RCUT    TYP  RCUT
     0   .000     23  1.900
     0   .000     23  1.900
     1   .000     23  1.900
     1   .000     23  1.900
     2   .000      7  1.900

 POTCAR:   PAW_PBE C 08Apr2002
   VRHFIN =C: s2p2

   TITEL  = PAW_PBE C 08Apr2002
   POMASS =   12.011; ZVAL   =    4.000    mass and valenz
   ENMAX  =  400.000; ENMIN  =  300.000 eV
   QCUT   =   -5.516; QGAM   =   11.032    optimization parameters

   Description
     l     E      TYP  RCUT    TYP  RCUT
     0   .000     23  1.200
     0   .000     23  1.200
     1   .000     23  1.500
     1  2.500     23  1.500
     2   .000      7  1.500

 Optimization of the real space projectors (new method)

 maximal supplied QI-value         = 19.84
 optimisation between [QCUT,QGAM] = [ 10.12, 20.44] = [ 28.68,116.96] Ry
 Optimized for a Real-space Cutoff    1.38 Angstroem

   l    n(q)    QCUT    max X(q) W(low)/X(q) W(high)/X(q)  e(spline)
   0      8    10.119     8.708    0.16E-04    0.67E-05    0.60E-08
   0      8    10.119   106.241    0.56E-04    0.11E-03    0.54E-07
   1      8    10.119     5.901    0.16E-04    0.16E-05    0.22E-07
   1      8    10.119    73.241    0.22E-03    0.17E-03    0.18E-06
 Optimization of the real space projectors (new method)

 maximal supplied QI-value         = 25.13
 optimisation between [QCUT,QGAM] = [ 10.05, 20.36] = [ 28.30,116.06] Ry
 Optimized for a Real-space Cutoff    1.38 Angstroem

   l    n(q)    QCUT    max X(q) W(low)/X(q) W(high)/X(q)  e(spline)
   0      8    10.053     5.582    0.33E-04    0.15E-04    0.75E-07
   0      8    10.053    69.432    0.23E-03    0.38E-03    0.25E-06
   1      8    10.053     2.780    0.76E-04    0.11E-03    0.15E-06
   1      8    10.053     4.549    0.19E-03    0.19E-03    0.27E-06
 PAW_PBE Si 05Jan2001                   :
 PAW_PBE C 08Apr2002                    :

 POSCAR: Si1 C214
  positions in direct lattice
  velocities in cartesian coordinates
 exchange correlation table for  LEXCH =        8
   RHO(1)=    0.500       N(1)  =     2000
   RHO(2)=  100.500       N(2)  =     4000

 ion  position               nearest neighbor table
   1  0.500  0.500  0.500- 108 1.98 131 1.98  16 1.98  71 1.98 162 1.98 215 1.98
   2  0.041  0.041  0.875-  91 1.54 139 1.54  41 1.54 189 1.54
   3  0.042  0.042  0.208-  92 1.53 140 1.53  42 1.54 190 1.54
   4  0.042  0.042  0.542-  93 1.53 141 1.53 191 1.54  43 1.54
   5  0.041  0.375  0.876-  44 1.53 142 1.53 192 1.54  94 1.54
   6  0.043  0.375  0.209- 143 1.53  45 1.53  95 1.54 193 1.54
   7  0.042  0.375  0.542- 144 1.53 194 1.54  96 1.54  46 1.54
   8  0.041  0.708  0.875- 136 1.53  38 1.53  97 1.54 195 1.54
   9  0.042  0.709  0.208-  39 1.54 137 1.54  98 1.54 196 1.54
  10  0.041  0.709  0.542- 138 1.53 197 1.54  99 1.54  40 1.54
  11  0.375  0.041  0.876-  50 1.53 100 1.53 198 1.54 148 1.54
  12  0.375  0.043  0.209- 101 1.53  51 1.53 149 1.54 199 1.54
  13  0.375  0.042  0.542- 102 1.53 200 1.54 150 1.54  52 1.54
  14  0.375  0.375  0.876-  53 1.53 201 1.54 151 1.54 103 1.54
  15  0.377  0.377  0.211-  54 1.53 104 1.54 152 1.54 202 1.55
  16  0.374  0.374  0.552- 105 1.51 153 1.51 203 1.54   1 1.98
  17  0.374  0.708  0.875- 204 1.53  47 1.54 145 1.54 106 1.54
  18  0.375  0.711  0.206- 107 1.53  48 1.53 205 1.53 146 1.54
  19  0.371  0.711  0.542- 108 1.51 206 1.52 147 1.53  49 1.55
  20  0.708  0.041  0.875-  82 1.53  32 1.53 157 1.54 207 1.54
  21  0.709  0.042  0.208-  33 1.54  83 1.54 158 1.54 208 1.54
  22  0.709  0.041  0.542-  84 1.53 209 1.54 159 1.54  34 1.54
  23  0.708  0.374  0.875- 210 1.53  35 1.54  85 1.54 160 1.54
  24  0.711  0.375  0.206- 161 1.53  36 1.53 211 1.53  86 1.54
  25  0.711  0.371  0.542- 162 1.51 212 1.52  87 1.53  37 1.55
  26  0.707  0.707  0.873-  29 1.53  88 1.54 154 1.54 213 1.55
  27  0.709  0.709  0.207-  30 1.53 214 1.54 155 1.54  89 1.54
  28  0.705  0.705  0.539- 215 1.54 156 1.54  90 1.54  31 1.56
  29  0.791  0.791  0.791-  26 1.53  75 1.53 117 1.53 163 1.54
  30  0.792  0.792  0.124-  27 1.53  73 1.53 115 1.53 164 1.54
  31  0.791  0.791  0.457-  74 1.54 116 1.54 165 1.54  28 1.56
  32  0.792  0.124  0.792-  78 1.53  20 1.53 111 1.53 166 1.54
  33  0.792  0.125  0.125-  21 1.54  76 1.54 109 1.54 167 1.54
  34  0.793  0.124  0.458-  77 1.53 110 1.53 168 1.54  22 1.54
  35  0.791  0.457  0.791-  23 1.54 114 1.54 169 1.54  81 1.56
  36  0.793  0.458  0.124-  24 1.53 112 1.53 170 1.54  79 1.54
  37  0.792  0.458  0.458- 171 1.53 113 1.53  25 1.55  80 1.55
  38  0.124  0.792  0.792- 126 1.53  57 1.53   8 1.53 172 1.54
  39  0.125  0.792  0.125-   9 1.54 124 1.54  55 1.54 173 1.54
  40  0.124  0.793  0.458- 125 1.53  56 1.53 174 1.54  10 1.54
  41  0.125  0.125  0.792-  60 1.54 120 1.54   2 1.54 175 1.54
  42  0.126  0.126  0.126-   3 1.54  58 1.54 118 1.54 176 1.54
  43  0.126  0.126  0.459-  59 1.53 119 1.53 177 1.54   4 1.54
  44  0.124  0.458  0.793- 123 1.53   5 1.53 178 1.54  63 1.54
  45  0.126  0.459  0.126-   6 1.53 121 1.53 179 1.54  61 1.54
  46  0.125  0.459  0.459- 180 1.53 122 1.53   7 1.54  62 1.54
  47  0.457  0.791  0.791-  17 1.54  66 1.54 181 1.54 135 1.56
  48  0.458  0.793  0.124-  18 1.53  64 1.53 182 1.54 133 1.54
  49  0.458  0.792  0.458- 183 1.53  65 1.53 134 1.55  19 1.55
  50  0.458  0.124  0.793-  69 1.53  11 1.53 184 1.54 129 1.54
  51  0.459  0.126  0.126-  12 1.53  67 1.53 185 1.54 127 1.54
  52  0.459  0.125  0.459- 186 1.53  68 1.53  13 1.54 128 1.54
  53  0.458  0.458  0.792- 187 1.53  14 1.53 132 1.55  72 1.55
  54  0.459  0.459  0.125- 188 1.53  15 1.53  70 1.54 130 1.54
  55  0.041  0.875  0.041-  91 1.54 190 1.54  39 1.54 136 1.54
  56  0.041  0.876  0.375-  40 1.53 191 1.53 137 1.54  92 1.54
  57  0.041  0.875  0.708- 189 1.53  38 1.53  93 1.54 138 1.54
  58  0.042  0.208  0.042-  94 1.53 193 1.53  42 1.54 139 1.54
  59  0.043  0.209  0.375- 194 1.53  43 1.53  95 1.54 140 1.54
  60  0.042  0.208  0.709-  41 1.54 192 1.54  96 1.54 141 1.54
[...]
 201  0.291  0.291  0.793- 175 1.53  14 1.54 123 1.54  69 1.54
 202  0.293  0.293  0.127- 176 1.53 121 1.54  67 1.54  15 1.55
 203  0.295  0.295  0.461-  16 1.54  68 1.54 122 1.54 177 1.56
 204  0.289  0.625  0.794-  72 1.53 178 1.53  17 1.53 126 1.54
 205  0.292  0.626  0.125-  18 1.53 179 1.54 124 1.54  70 1.54
 206  0.289  0.629  0.458-  71 1.51  19 1.52 125 1.53 180 1.55
 207  0.625  0.957  0.791- 129 1.53 181 1.53  75 1.54  20 1.54
 208  0.625  0.959  0.124- 182 1.53 127 1.53  21 1.54  73 1.54
 209  0.625  0.958  0.458- 128 1.53  22 1.54  74 1.54 183 1.54
 210  0.625  0.289  0.794- 132 1.53 184 1.53  23 1.53  78 1.54
 211  0.626  0.292  0.125-  24 1.53 185 1.54  76 1.54 130 1.54
 212  0.629  0.289  0.458- 131 1.51  25 1.52  77 1.53 186 1.55
 213  0.623  0.623  0.789- 187 1.53 135 1.54  81 1.54  26 1.55
 214  0.625  0.625  0.124- 188 1.53  27 1.54 133 1.54  79 1.54
 215  0.626  0.626  0.448-  80 1.51 134 1.51  28 1.54   1 1.98

IMPORTANT INFORMATION: All symmetrisations will be switched off!
NOSYMM: (Re-)initialisation of all symmetry stuff for point group C_1.

 KPOINTS: pymatgen v1.1 with grid density = 2210 /

Automatic generation of k-mesh.
Space group operators:
 irot       det(A)        alpha          n_x          n_y          n_z        tau_x        tau_y        tau_z
    1     1.000000     0.000001     1.000000     0.000000     0.000000     0.000000     0.000000     0.000000

 Subroutine IBZKPT returns following result:

 Found      1 irreducible k-points:

 Following reciprocal coordinates:
            Coordinates               Weight
  0.000000  0.000000  0.000000      1.000000

 Following cartesian coordinates:
            Coordinates               Weight
  0.000000  0.000000  0.000000      1.000000

 Subroutine IBZKPT_HF returns following result:

 Found      1 k-points in 1st BZ
 the following      1 k-points will be used (e.g. in the exchange kernel)
 Following reciprocal coordinates:   # in IRBZ
  0.000000  0.000000  0.000000    1.00000000   1 t-inv F

 SYSTEM =  unknown system
 POSCAR =  Si1 C214

 Startparameter for this run:
   NWRITE =      2    write-flag & timer
   PREC   = accura    normal or accurate (medium, high low for compatibility)
   ISTART =      1    job   : 0-new  1-cont  2-samecut
   ICHARG =      2    charge: 1-file 2-atom 10-const
   ISPIN  =      2    spin polarized calculation?
   LNONCOLLINEAR =      F non collinear calculations
   LSORBIT =      F    spin-orbit coupling
   INIWAV =      1    electr: 0-lowe 1-rand  2-diag
   LASPH  =      F    aspherical Exc in radial PAW
   METAGGA=      F    non-selfconsistent MetaGGA calc.

 Electronic Relaxation 1
   ENCUT  =  400.0 eV  29.40 Ry    5.42 a.u.  17.36 17.36 17.36*2*pi/ulx,y,z
   ENINI  =  400.0     initial cutoff
   ENAUG  =  644.9 eV  augmentation charge cutoff
   NELM   =    100;   NELMIN=  2; NELMDL=  0     # of ELM steps
   EDIFF  = 0.1E-04   stopping-criterion for ELM
   LREAL  =      T    real-space projection
   NLSPLINE    = F    spline interpolate recip. space projectors
   LCOMPAT=      F    compatible to vasp.4.4
   GGA_COMPAT  = T    GGA compatible to vasp.4.4-vasp.4.6
   LMAXPAW     = -100 max onsite density
   LMAXMIX     =    2 max onsite mixed and CHGCAR
   VOSKOWN=      0    Vosko Wilk Nusair interpolation
   ROPT   =   -0.00025  -0.00025
 Ionic relaxation
   EDIFFG = -.1E-01   stopping-criterion for IOM
   NSW    =     99    number of steps for IOM
   NBLOCK =      1;   KBLOCK =     99    inner block; outer block
   IBRION =      2    ionic relax: 0-MD 1-quasi-New 2-CG
   NFREE  =      1    steps in history (QN), initial steepest desc. (CG)
   ISIF   =      2    stress and relaxation
   IWAVPR =     11    prediction:  0-non 1-charg 2-wave 3-comb
   ISYM   =      0    0-nonsym 1-usesym 2-fastsym
   LCORR  =      T    Harris-Foulkes like correction to forces

   POTIM  = 0.5000    time-step for ionic-motion
   TEIN   =    0.0    initial temperature
   TEBEG  =    0.0;   TEEND  =   0.0 temperature during run
   SMASS  =  -3.00    Nose mass-parameter (am)
   estimated Nose-frequenzy (Omega)   =  0.10E-29 period in steps =****** mass=  -0.259E-26a.u.
   SCALEE = 1.0000    scale energy and forces
   NPACO  =    256;   APACO  = 16.0  distance and # of slots for P.C.
   PSTRESS=    0.0 pullay stress

  Mass of Ions in am
   POMASS =  28.09 12.01
  Ionic Valenz
   ZVAL   =   4.00  4.00
  Atomic Wigner-Seitz radii
  virtual crystal weights
   VCA    =   1.00  1.00
   NELECT =     860.0000    total number of electrons
   NUPDOWN=       2.0000    fix difference up-down

 DOS related values:
   EMIN   =  10.00;   EMAX   =-10.00  energy-range for DOS
   EFERMI =   0.00
   ISMEAR =    -2;   SIGMA  =   0.05  broadening in eV -4-tet -1-fermi 0-gaus

 Electronic relaxation 2 (details)
[...]
   -.463E+00 0.593E+01 -.225E+00   0.549E+00 -.591E+01 0.187E+00   -.750E-01 -.256E-01 0.366E-01
   -.134E+00 -.942E+00 0.173E+00   0.113E+00 0.892E+00 -.112E+00   0.200E-01 0.479E-01 -.619E-01
   -.174E+00 -.462E+01 -.245E+01   0.171E+00 0.466E+01 0.243E+01   -.747E-03 -.443E-01 0.214E-01
   -.322E+01 -.480E+01 0.245E+01   0.330E+01 0.475E+01 -.255E+01   -.797E-01 0.489E-01 0.907E-01
   -.442E+01 -.574E+01 0.490E+01   0.456E+01 0.587E+01 -.484E+01   -.122E+00 -.127E+00 -.610E-01
   -.556E+01 -.611E+01 -.200E+02   0.551E+01 0.629E+01 0.204E+02   0.383E-01 -.187E+00 -.425E+00
   -.440E+02 -.483E+02 0.433E+02   0.456E+02 0.497E+02 -.455E+02   -.146E+01 -.125E+01 0.201E+01
   -.621E+01 0.579E+01 0.466E+01   0.633E+01 -.577E+01 -.469E+01   -.102E+00 -.165E-01 0.357E-01
   -.208E+01 0.831E+01 -.573E+01   0.228E+01 -.852E+01 0.588E+01   -.190E+00 0.195E+00 -.146E+00
   -.224E+02 0.216E+02 0.680E+01   0.221E+02 -.220E+02 -.651E+01   0.272E+00 0.344E+00 -.274E+00
   0.309E+01 0.502E+00 0.187E+01   -.311E+01 -.477E+00 -.190E+01   0.116E-01 -.199E-01 0.318E-01
   0.303E+01 -.115E+01 -.587E+00   -.311E+01 0.121E+01 0.570E+00   0.685E-01 -.613E-01 0.215E-01
   0.458E+01 -.625E+00 -.254E-01   -.456E+01 0.718E+00 0.260E-01   -.185E-01 -.827E-01 0.126E-02
   0.444E+01 -.726E+01 0.459E+01   -.443E+01 0.735E+01 -.475E+01   -.155E-01 -.781E-01 0.160E+00
   0.790E+01 -.467E+01 -.691E+01   -.796E+01 0.474E+01 0.691E+01   0.494E-01 -.627E-01 -.773E-03
   0.201E+02 -.245E+02 0.715E+01   -.206E+02 0.246E+02 -.641E+01   0.478E+00 -.689E-01 -.710E+00
   0.689E+01 0.790E+01 0.800E+01   -.705E+01 -.808E+01 -.819E+01   0.158E+00 0.170E+00 0.194E+00
   0.596E+01 0.771E+01 -.530E+01   -.608E+01 -.777E+01 0.521E+01   0.110E+00 0.534E-01 0.978E-01
   0.208E+02 0.233E+02 -.705E+01   -.208E+02 -.234E+02 0.791E+01   -.159E-01 0.838E-01 -.812E+00
   0.503E+01 0.612E+01 0.332E+01   -.506E+01 -.619E+01 -.329E+01   0.437E-01 0.702E-01 -.190E-01
   0.218E+01 0.335E+01 -.284E+00   -.212E+01 -.330E+01 0.170E+00   -.584E-01 -.475E-01 0.118E+00
   0.884E+01 0.103E+02 -.649E+01   -.871E+01 -.102E+02 0.649E+01   -.122E+00 -.108E+00 0.107E-01
   0.168E+01 -.155E+01 -.826E-01   -.174E+01 0.161E+01 0.463E-01   0.622E-01 -.562E-01 0.337E-01
   0.165E+01 -.304E+01 -.983E+00   -.165E+01 0.311E+01 0.981E+00   -.443E-02 -.574E-01 0.472E-02
   0.382E+01 -.276E+01 -.306E+01   -.384E+01 0.288E+01 0.302E+01   0.107E-01 -.108E+00 0.363E-01
   0.979E+01 -.783E+01 0.770E+01   -.102E+02 0.823E+01 -.812E+01   0.408E+00 -.370E+00 0.406E+00
   0.543E+01 -.266E+01 -.252E+01   -.550E+01 0.260E+01 0.243E+01   0.581E-01 0.610E-01 0.847E-01
   0.246E+02 -.835E+01 -.538E+01   -.248E+02 0.797E+01 0.595E+01   0.248E+00 0.371E+00 -.541E+00
   -.119E+01 0.313E+01 0.224E+00   0.120E+01 -.317E+01 -.222E+00   -.407E-02 0.337E-01 -.187E-02
   -.224E+01 0.282E+01 -.942E+00   0.230E+01 -.284E+01 0.961E+00   -.605E-01 0.954E-02 -.208E-01
   -.186E+01 0.504E+01 -.325E+01   0.201E+01 -.514E+01 0.313E+01   -.132E+00 0.879E-01 0.109E+00
   -.227E+01 -.302E+01 -.120E+00   0.227E+01 0.304E+01 0.155E+00   0.455E-02 -.185E-01 -.311E-01
   -.361E+01 -.427E+01 -.263E+01   0.366E+01 0.432E+01 0.267E+01   -.531E-01 -.526E-01 -.404E-01
   -.469E+01 -.568E+01 0.809E+00   0.457E+01 0.557E+01 -.927E+00   0.112E+00 0.976E-01 0.110E+00
   -.389E+01 -.266E+01 0.350E+01   0.373E+01 0.281E+01 -.338E+01   0.164E+00 -.142E+00 -.121E+00
   -.562E+01 -.108E+01 -.416E+01   0.577E+01 0.120E+01 0.429E+01   -.145E+00 -.122E+00 -.130E+00
   -.119E+02 0.768E+00 0.781E+00   0.119E+02 -.773E+00 -.833E+00   -.504E-01 0.206E-02 0.470E-01
   -.723E+01 0.110E+02 0.740E+01   0.750E+01 -.112E+02 -.765E+01   -.254E+00 0.252E+00 0.244E+00
   -.305E+01 0.596E+01 -.172E+01   0.292E+01 -.610E+01 0.173E+01   0.133E+00 0.119E+00 -.167E-02
   -.766E+01 0.251E+02 -.610E+01   0.738E+01 -.253E+02 0.646E+01   0.273E+00 0.255E+00 -.338E+00
   -.297E+01 -.391E+01 0.273E+01   0.311E+01 0.382E+01 -.260E+01   -.131E+00 0.994E-01 -.137E+00
   -.584E+00 -.629E+01 -.384E+01   0.641E+00 0.636E+01 0.390E+01   -.587E-01 -.776E-01 -.526E-01
   0.106E+01 -.123E+02 0.122E+01   -.104E+01 0.123E+02 -.123E+01   -.229E-01 -.427E-01 0.115E-01
   -.610E+01 -.751E+01 0.236E+02   0.643E+01 0.753E+01 -.239E+02   -.314E+00 -.221E-01 0.263E+00
   0.247E+00 0.343E+00 -.112E+02   -.351E+00 -.435E+00 0.113E+02   0.980E-01 0.875E-01 -.736E-01
   0.399E+00 0.225E+01 0.784E+00   -.387E+00 -.231E+01 -.792E+00   -.780E-02 0.470E-01 0.607E-02
   -.759E-01 0.180E+01 0.182E+01   0.170E+00 -.182E+01 -.175E+01   -.865E-01 0.131E-01 -.623E-01
   0.927E+00 0.386E+01 0.130E+01   -.932E+00 -.390E+01 -.129E+01   0.127E-01 0.361E-01 -.382E-02
   -.107E+01 -.199E+01 -.583E+00   0.106E+01 0.198E+01 0.600E+00   0.959E-02 0.541E-02 -.195E-01
   -.442E+01 -.541E+01 0.113E+01   0.443E+01 0.552E+01 -.120E+01   -.530E-02 -.102E+00 0.540E-01
   -.132E+01 -.386E+01 0.154E+01   0.115E+01 0.381E+01 -.146E+01   0.165E+00 0.593E-01 -.798E-01
[...]
   -.689E+01 -.790E+01 -.800E+01   0.705E+01 0.808E+01 0.819E+01   -.158E+00 -.170E+00 -.194E+00
   -.208E+02 -.233E+02 0.705E+01   0.208E+02 0.234E+02 -.792E+01   0.160E-01 -.838E-01 0.812E+00
   -.789E+01 0.467E+01 0.691E+01   0.796E+01 -.475E+01 -.691E+01   -.494E-01 0.627E-01 0.739E-03
   -.444E+01 0.726E+01 -.459E+01   0.443E+01 -.735E+01 0.476E+01   0.156E-01 0.781E-01 -.160E+00
   -.201E+02 0.245E+02 -.715E+01   0.206E+02 -.246E+02 0.641E+01   -.478E+00 0.689E-01 0.710E+00
   0.173E+00 0.462E+01 0.245E+01   -.170E+00 -.466E+01 -.242E+01   0.751E-03 0.444E-01 -.214E-01
   0.134E+00 0.941E+00 -.176E+00   -.112E+00 -.891E+00 0.115E+00   -.200E-01 -.479E-01 0.619E-01
   0.322E+01 0.480E+01 -.245E+01   -.330E+01 -.475E+01 0.255E+01   0.797E-01 -.489E-01 -.907E-01
   0.208E+01 -.831E+01 0.573E+01   -.228E+01 0.852E+01 -.588E+01   0.190E+00 -.195E+00 0.146E+00
   0.621E+01 -.579E+01 -.466E+01   -.633E+01 0.577E+01 0.469E+01   0.102E+00 0.165E-01 -.357E-01
   0.224E+02 -.216E+02 -.680E+01   -.221E+02 0.220E+02 0.651E+01   -.272E+00 -.344E+00 0.274E+00
   0.556E+01 0.611E+01 0.200E+02   -.551E+01 -.629E+01 -.204E+02   -.382E-01 0.187E+00 0.425E+00
   0.443E+01 0.574E+01 -.490E+01   -.456E+01 -.587E+01 0.484E+01   0.122E+00 0.127E+00 0.609E-01
   0.440E+02 0.483E+02 -.433E+02   -.456E+02 -.497E+02 0.455E+02   0.146E+01 0.125E+01 -.201E+01
   -.822E-03 0.253E-03 0.192E-03   0.206E-12 -.639E-13 -.142E-12   0.124E-02 -.433E-03 -.745E-03

 POSITION                                       TOTAL-FORCE (eV/Angst)
      5.32303      5.32303      5.32303         0.000019     -0.000026     -0.000052
      0.44128      0.44107      9.31726        -0.002056     -0.002113      0.007681
      0.44813      0.44863      2.21822        -0.001260      0.000148      0.000320
      0.44312      0.44291      5.76942        -0.000571      0.000216     -0.000735
      0.44216      3.98925      9.32293         0.001356      0.000089     -0.002121
      0.45496      3.99656      2.22285        -0.002108      0.000240      0.000669
      0.44539      3.99267      5.76907         0.000010      0.001119     -0.002011
      0.43469      7.53942      9.31278        -0.000397     -0.001898      0.001163
      0.44194      7.54491      2.21248        -0.003665     -0.002523      0.001356
      0.43533      7.54406      5.76466         0.001874      0.000522     -0.000437
      3.98938      0.44045      9.32478        -0.001055     -0.000888      0.000359
      3.99547      0.45436      2.22088        -0.001831     -0.003885      0.001729
      3.99132      0.44330      5.76971        -0.003144     -0.000926     -0.005747
      3.99206      3.99131      9.31835         0.002897      0.000738     -0.004972
      4.01237      4.01223      2.25096        -0.001664      0.001980      0.001962
      3.94289      3.91927      5.87602         0.000902      0.000262      0.000406
      3.98610      7.54036      9.31318         0.002145     -0.004183      0.002121
      3.98916      7.56326      2.20449        -0.000882      0.000899     -0.004308
      3.94302      7.58477      5.77016         0.001029     -0.001820     -0.000539
      7.54054      0.43464      9.31425        -0.001525     -0.000594      0.004510
      7.54604      0.44178      2.21123        -0.005998     -0.004679      0.001730
      7.54568      0.43444      5.76560        -0.001346      0.000743      0.001655
      7.54001      3.98414      9.31421        -0.003145      0.000792      0.002186
      7.55714      3.98724      2.20897        -0.002642      0.005585      0.001072
      7.57780      3.93738      5.77563        -0.000473      0.001089     -0.002539
      7.52776      7.52769      9.29498        -0.000619      0.000625      0.000075
      7.54393      7.54627      2.20776        -0.000965      0.000691      0.001209
      7.51992      7.52544      5.74864        -0.001922     -0.001591      0.003078
      8.41768      8.41750      8.41814         0.005519      0.001742      0.003608
      8.42907      8.42920      1.31972         0.002742     -0.000842      0.004286
      8.43063      8.43318      4.86666         0.002244      0.001941      0.000283
      8.43034      1.31982      8.43065         0.000457     -0.001786     -0.000148
      8.43390      1.33030      1.32898        -0.002436      0.002677      0.001193
      8.44563      1.31374      4.87834         0.001518      0.000935     -0.003333
      8.41724      4.86921      8.41406        -0.001359      0.005344     -0.001827
      8.43610      4.87857      1.32285        -0.002958      0.004693      0.002785
      8.43633      4.86807      4.88032         0.000109      0.001233      0.001062
      1.32031      8.42946      8.42972         0.001256     -0.004767     -0.000234
      1.32938      8.43372      1.32862         0.001130     -0.004727     -0.004520
      1.31377      8.44551      4.87747         0.002317     -0.002341     -0.007110
      1.32978      1.33015      8.43418         0.004060      0.000939      0.004346
      1.33728      1.33780      1.33668        -0.004200     -0.001745     -0.003206
      1.33397      1.33401      4.88300         0.001916      0.000751     -0.001698
      1.32107      4.88016      8.43764         0.004042      0.003745     -0.003811
      1.33993      4.88620      1.33954        -0.002457     -0.000240      0.000364
      1.33349      4.88617      4.88459         0.001500      0.000805      0.000474
      4.86924      8.42267      8.41710         0.004421     -0.001174      0.000050
      4.87745      8.43977      1.31920         0.002208     -0.001875      0.000063
      4.86888      8.44714      4.87526         0.001391      0.003876     -0.000636
      4.87964      1.31682      8.44177         0.005183      0.001492     -0.002039
      4.88509      1.33852      1.33789        -0.002512     -0.002437      0.002760
      4.88582      1.32868      4.88507         0.000911      0.000307      0.002001
      4.87929      4.87419      8.42050        -0.001500     -0.001385     -0.002651
      4.88513      4.88563      1.34119         0.001423      0.003785      0.000724
      0.44115      9.31647      0.44119         0.002810     -0.007071     -0.002663
      0.43833      9.32492      3.99015         0.000457     -0.002316      0.000882
      0.43404      9.31239      7.54058         0.003999      0.000017      0.002973
      0.44870      2.21923      0.44840        -0.001963      0.000808     -0.000923
      0.45395      2.22328      3.99531         0.001183      0.001083     -0.004928
      0.44186      2.21184      7.54688         0.003790      0.002343     -0.000120
[...]
      3.10213      3.09979      8.43830         0.000939     -0.000698     -0.001203
      3.11830      3.11837      1.35108         0.000591     -0.000632     -0.000043
      3.12614      3.12062      4.89743         0.001943      0.001572     -0.003162
      3.08893      6.65882      8.43709         0.002631     -0.005578     -0.001065
      3.10605      6.66192      1.33185         0.003124     -0.000806     -0.002148
      3.06826      6.70868      4.87043         0.000469     -0.001102      0.002417
      6.65058     10.19170      8.42518         0.001853      0.003889     -0.001703
      6.65669     10.20561      1.32127         0.001041      0.000932     -0.000352
      6.65473     10.20276      4.87636         0.003167      0.000923      0.005684
      6.65690      3.08280      8.44157         0.000915     -0.000919      0.004362
      6.65996      3.10569      1.33288        -0.002137      0.004153     -0.002087
      6.70304      3.06129      4.87590        -0.001049      0.001836      0.000532
      6.63369      6.63384      8.39510         0.001681     -0.001975     -0.001973
      6.65400      6.65475      1.32771        -0.002867     -0.000720      0.005015
      6.70317      6.72679      4.77003        -0.000900     -0.000211     -0.000476
    total drift:                                0.000457     -0.000207     -0.000563

  FREE ENERGIE OF THE ION-ELECTRON SYSTEM (eV)
  free  energy   TOTEN  =     -2409.65755068 eV

  energy  without entropy=    -2409.65755068  energy(sigma->0) =    -2409.65755068

 d Force = 0.6999079E-05[-0.164E-05, 0.156E-04]  d Energy = 0.6891486E-05 0.108E-06
 d Force =-0.2868949E-01[-0.287E-01,-0.287E-01]  d Ewald  =-0.2868979E-01 0.295E-06

 reached required accuracy - stopping structural energy minimisation
 writing wavefunctions

 total charge

[...]

 magnetization (x)

# of ion       s       p       d       tot
    1       -0.004   0.084   0.000   0.080
    2        0.000   0.002   0.000   0.002
    3       -0.000   0.000   0.000   0.000
    4        0.000   0.002   0.000   0.003
    5        0.000   0.004   0.000   0.004
    6        0.000   0.001   0.000   0.001
    7        0.000   0.001   0.000   0.001
    8       -0.000   0.000   0.000   0.000
    9       -0.000   0.000   0.000   0.000
   10       -0.000   0.000   0.000   0.000
   11        0.000   0.003   0.000   0.003
   12        0.000   0.001   0.000   0.001
   13        0.000   0.002   0.000   0.002
   14        0.000   0.003   0.000   0.004
   15        0.000   0.001   0.000   0.001
   16        0.019   0.232   0.000   0.251
   17       -0.000   0.000   0.000  -0.000
   18        0.000   0.003   0.000   0.003
   19       -0.000   0.000   0.000   0.000
   20       -0.000   0.000   0.000   0.000
   21        0.000   0.002   0.000   0.002
   22       -0.000   0.000   0.000   0.000
   23       -0.000   0.000   0.000   0.000
   24        0.001   0.010   0.000   0.011
   25        0.000   0.004   0.000   0.004
   26       -0.000   0.000   0.000   0.000
   27       -0.000  -0.001   0.000  -0.001
   28       -0.002  -0.002   0.000  -0.004
   29        0.000   0.000   0.000   0.000
   30        0.000   0.003   0.000   0.003
   31        0.003   0.025   0.000   0.027
   32       -0.000   0.000   0.000   0.000
   33        0.000   0.001   0.000   0.001
   34        0.000   0.001   0.000   0.001
   35        0.000   0.001   0.000   0.001
   36        0.000   0.005   0.000   0.006
   37       -0.000   0.002   0.000   0.002
   38        0.000   0.001   0.000   0.001
   39        0.000   0.001   0.000   0.001
   40       -0.000   0.000   0.000   0.000
   41       -0.000   0.000   0.000   0.000
   42        0.000   0.001   0.000   0.001
   43        0.000   0.002   0.000   0.002
   44        0.001   0.007   0.000   0.008
   45       -0.000  -0.000   0.000  -0.000
   46       -0.000  -0.000   0.000  -0.000
   47        0.001   0.007   0.000   0.008
   48        0.000   0.003   0.000   0.003
   49        0.000   0.004   0.000   0.005
   50        0.001   0.005   0.000   0.006
   51       -0.000   0.000   0.000   0.000
   52       -0.000  -0.000   0.000  -0.000
   53       -0.000  -0.000   0.000  -0.001
   54        0.000   0.001   0.000   0.001
   55       -0.000   0.000   0.000   0.000
   56       -0.000   0.000   0.000   0.000
   57        0.000   0.001   0.000   0.001
   58        0.000   0.001   0.000   0.001
   59       -0.000   0.000   0.000   0.000
   60        0.000   0.005   0.000   0.005
[...]
  201       -0.000  -0.001   0.000  -0.001
  202       -0.000   0.000   0.000   0.000
  203       -0.002  -0.002   0.000  -0.004
  204        0.001   0.010   0.000   0.011
  205       -0.000   0.000   0.000   0.000
  206        0.000   0.004   0.000   0.004
  207        0.000   0.001   0.000   0.001
  208        0.000   0.003   0.000   0.003
  209        0.000   0.002   0.000   0.002
  210        0.000   0.003   0.000   0.003
  211       -0.000   0.000   0.000  -0.000
  212       -0.000   0.000   0.000   0.000
  213        0.000   0.001   0.000   0.001
  214        0.000   0.003   0.000   0.004
  215        0.019   0.232   0.000   0.251
tot          0.086   1.280   0.000   1.366