 vasp.5.4.4.18Apr17-6-g9f103f2a35 (build Jun 14 2024 12:30:39) gamma-only
 executed on NVIDIA22.7_CrayMPICH date 2025.05.06  13:08:27

 INCAR:
 POTCAR:   PAW_PBE Si 05Jan2001
 POTCAR:   PAW_PBE C 08Apr2002
 POTCAR:   PAW_PBE Si 05Jan2001
   VRHFIN =Si: s2p2

   TITEL  = PAW_PBE Si 05Jan2001
   POMASS =   28.085; ZVAL   =    4.000    mass and valenz
   ENMAX  =  245.345; ENMIN  =  184.009 eV
   QCUT   =   -4.246; QGAM   =    8.493    optimization parameters

   Description
     l     E      TYP  RCUT    TYP  RCUT
     0   .000     23  1.900
     0   .000     23  1.900
     1   .000     23  1.900
     1   .000     23  1.900
     2   .000      7  1.900

 POTCAR:   PAW_PBE C 08Apr2002
   VRHFIN =C: s2p2

   TITEL  = PAW_PBE C 08Apr2002
   POMASS =   12.011; ZVAL   =    4.000    mass and valenz
   ENMAX  =  400.000; ENMIN  =  300.000 eV
   QCUT   =   -5.516; QGAM   =   11.032    optimization parameters

   Description
     l     E      TYP  RCUT    TYP  RCUT
     0   .000     23  1.200
     0   .000     23  1.200
     1   .000     23  1.500
     1  2.500     23  1.500
     2   .000      7  1.500

 Optimization of the real space projectors (new method)

 maximal supplied QI-value         = 19.84
 optimisation between [QCUT,QGAM] = [ 10.12, 20.44] = [ 28.68,116.96] Ry
 Optimized for a Real-space Cutoff    1.38 Angstroem

   l    n(q)    QCUT    max X(q) W(low)/X(q) W(high)/X(q)  e(spline)
   0      8    10.119     8.708    0.16E-04    0.67E-05    0.60E-08
   0      8    10.119   106.241    0.56E-04    0.11E-03    0.54E-07
   1      8    10.119     5.901    0.16E-04    0.16E-05    0.22E-07
   1      8    10.119    73.241    0.22E-03    0.17E-03    0.18E-06
 Optimization of the real space projectors (new method)

 maximal supplied QI-value         = 25.13
 optimisation between [QCUT,QGAM] = [ 10.05, 20.36] = [ 28.30,116.06] Ry
 Optimized for a Real-space Cutoff    1.38 Angstroem

   l    n(q)    QCUT    max X(q) W(low)/X(q) W(high)/X(q)  e(spline)
   0      8    10.053     5.582    0.33E-04    0.15E-04    0.75E-07
   0      8    10.053    69.432    0.23E-03    0.38E-03    0.25E-06
   1      8    10.053     2.780    0.76E-04    0.11E-03    0.15E-06
   1      8    10.053     4.549    0.19E-03    0.19E-03    0.27E-06
 PAW_PBE Si 05Jan2001                   :
 PAW_PBE C 08Apr2002                    :

 POSCAR: Si1 C214
  positions in direct lattice
  velocities in cartesian coordinates
 exchange correlation table for  LEXCH =        8
   RHO(1)=    0.500       N(1)  =     2000
   RHO(2)=  100.500       N(2)  =     4000

 ion  position               nearest neighbor table
   1  0.500  0.500  0.500- 108 1.98 131 1.98  16 1.98  71 1.98 162 1.98 215 1.98
   2  0.041  0.041  0.875-  91 1.54 139 1.54  41 1.54 189 1.54
   3  0.042  0.042  0.208-  92 1.53 140 1.53  42 1.54 190 1.54
   4  0.042  0.042  0.542-  93 1.53 141 1.53 191 1.54  43 1.54
   5  0.041  0.375  0.876-  44 1.53 142 1.53 192 1.54  94 1.54
   6  0.043  0.375  0.209- 143 1.53  45 1.53  95 1.54 193 1.54
   7  0.042  0.375  0.542- 144 1.53 194 1.54  96 1.54  46 1.54
   8  0.041  0.708  0.875- 136 1.53  38 1.53  97 1.54 195 1.54
   9  0.042  0.709  0.208-  39 1.54 137 1.54  98 1.54 196 1.54
  10  0.041  0.709  0.542- 138 1.53 197 1.54  99 1.54  40 1.54
  11  0.375  0.041  0.876-  50 1.53 100 1.53 198 1.54 148 1.54
  12  0.375  0.043  0.209- 101 1.53  51 1.53 149 1.54 199 1.54
  13  0.375  0.042  0.542- 102 1.53 200 1.54 150 1.54  52 1.54
  14  0.375  0.375  0.876-  53 1.53 201 1.54 151 1.54 103 1.54
  15  0.377  0.377  0.211-  54 1.53 104 1.54 152 1.54 202 1.55
  16  0.374  0.374  0.552- 105 1.51 153 1.51 203 1.54   1 1.98
  17  0.374  0.708  0.875- 204 1.53  47 1.54 145 1.54 106 1.54
  18  0.375  0.711  0.206- 107 1.53  48 1.53 205 1.53 146 1.54
  19  0.371  0.711  0.542- 108 1.51 206 1.52 147 1.53  49 1.55
  20  0.708  0.041  0.875-  82 1.53  32 1.53 157 1.54 207 1.54
  21  0.709  0.042  0.208-  33 1.54  83 1.54 158 1.54 208 1.54
  22  0.709  0.041  0.542-  84 1.53 209 1.54 159 1.54  34 1.54
  23  0.708  0.374  0.875- 210 1.53  35 1.54  85 1.54 160 1.54
  24  0.711  0.375  0.206- 161 1.53  36 1.53 211 1.53  86 1.54
  25  0.711  0.371  0.542- 162 1.51 212 1.52  87 1.53  37 1.55
  26  0.707  0.707  0.873-  29 1.53  88 1.54 154 1.54 213 1.55
  27  0.709  0.709  0.207-  30 1.53 214 1.54 155 1.54  89 1.54
  28  0.705  0.705  0.539- 215 1.54 156 1.54  90 1.54  31 1.56
  29  0.791  0.791  0.791-  26 1.53  75 1.53 117 1.53 163 1.54
  30  0.792  0.792  0.124-  27 1.53  73 1.53 115 1.53 164 1.54
  31  0.791  0.791  0.457-  74 1.54 116 1.54 165 1.54  28 1.56
  32  0.792  0.124  0.792-  78 1.53  20 1.53 111 1.53 166 1.54
  33  0.792  0.125  0.125-  21 1.54  76 1.54 109 1.54 167 1.54
  34  0.793  0.124  0.458-  77 1.53 110 1.53 168 1.54  22 1.54
  35  0.791  0.457  0.791-  23 1.54 114 1.54 169 1.54  81 1.56
  36  0.793  0.458  0.124-  24 1.53 112 1.53 170 1.54  79 1.54
  37  0.792  0.458  0.458- 171 1.53 113 1.53  25 1.55  80 1.55
  38  0.124  0.792  0.792- 126 1.53  57 1.53   8 1.53 172 1.54
  39  0.125  0.792  0.125-   9 1.54 124 1.54  55 1.54 173 1.54
  40  0.124  0.793  0.458- 125 1.53  56 1.53 174 1.54  10 1.54
  41  0.125  0.125  0.792-  60 1.54 120 1.54   2 1.54 175 1.54
  42  0.126  0.126  0.126-   3 1.54  58 1.54 118 1.54 176 1.54
  43  0.126  0.126  0.459-  59 1.53 119 1.53 177 1.54   4 1.54
  44  0.124  0.458  0.793- 123 1.53   5 1.53 178 1.54  63 1.54
  45  0.126  0.459  0.126-   6 1.53 121 1.53 179 1.54  61 1.54
  46  0.125  0.459  0.459- 180 1.53 122 1.53   7 1.54  62 1.54
  47  0.457  0.791  0.791-  17 1.54  66 1.54 181 1.54 135 1.56
  48  0.458  0.793  0.124-  18 1.53  64 1.53 182 1.54 133 1.54
  49  0.458  0.792  0.458- 183 1.53  65 1.53 134 1.55  19 1.55
  50  0.458  0.124  0.793-  69 1.53  11 1.53 184 1.54 129 1.54
  51  0.459  0.126  0.126-  12 1.53  67 1.53 185 1.54 127 1.54
  52  0.459  0.125  0.459- 186 1.53  68 1.53  13 1.54 128 1.54
  53  0.458  0.458  0.792- 187 1.53  14 1.53 132 1.55  72 1.55
  54  0.459  0.459  0.125- 188 1.53  15 1.53  70 1.54 130 1.54
  55  0.041  0.875  0.041-  91 1.54 190 1.54  39 1.54 136 1.54
  56  0.041  0.876  0.375-  40 1.53 191 1.53 137 1.54  92 1.54
  57  0.041  0.875  0.708- 189 1.53  38 1.53  93 1.54 138 1.54
  58  0.042  0.208  0.042-  94 1.53 193 1.53  42 1.54 139 1.54
  59  0.043  0.209  0.375- 194 1.53  43 1.53  95 1.54 140 1.54
  60  0.042  0.208  0.709-  41 1.54 192 1.54  96 1.54 141 1.54
[...]
 201  0.291  0.291  0.793- 175 1.53  14 1.54 123 1.54  69 1.54
 202  0.293  0.293  0.127- 176 1.53 121 1.54  67 1.54  15 1.55
 203  0.295  0.295  0.461-  16 1.54  68 1.54 122 1.54 177 1.56
 204  0.289  0.625  0.794-  72 1.53 178 1.53  17 1.53 126 1.54
 205  0.292  0.626  0.125-  18 1.53 179 1.54 124 1.54  70 1.54
 206  0.289  0.629  0.458-  71 1.51  19 1.52 125 1.53 180 1.55
 207  0.625  0.957  0.791- 129 1.53 181 1.53  75 1.54  20 1.54
 208  0.625  0.959  0.124- 182 1.53 127 1.53  21 1.54  73 1.54
 209  0.625  0.958  0.458- 128 1.53  22 1.54  74 1.54 183 1.54
 210  0.625  0.289  0.794- 132 1.53 184 1.53  23 1.53  78 1.54
 211  0.626  0.292  0.125-  24 1.53 185 1.54  76 1.54 130 1.54
 212  0.629  0.289  0.458- 131 1.51  25 1.52  77 1.53 186 1.55
 213  0.623  0.623  0.789- 187 1.53 135 1.54  81 1.54  26 1.55
 214  0.625  0.625  0.124- 188 1.53  27 1.54 133 1.54  79 1.54
 215  0.626  0.626  0.448-  80 1.51 134 1.51  28 1.54   1 1.98

IMPORTANT INFORMATION: All symmetrisations will be switched off!
NOSYMM: (Re-)initialisation of all symmetry stuff for point group C_1.

 KPOINTS: pymatgen v1.1 with grid density = 2210 /

Automatic generation of k-mesh.
Space group operators:
 irot       det(A)        alpha          n_x          n_y          n_z        tau_x        tau_y        tau_z
    1     1.000000     0.000001     1.000000     0.000000     0.000000     0.000000     0.000000     0.000000

 Subroutine IBZKPT returns following result:

 Found      1 irreducible k-points:

 Following reciprocal coordinates:
            Coordinates               Weight
  0.000000  0.000000  0.000000      1.000000

 Following cartesian coordinates:
            Coordinates               Weight
  0.000000  0.000000  0.000000      1.000000

 Subroutine IBZKPT_HF returns following result:

 Found      1 k-points in 1st BZ
 the following      1 k-points will be used (e.g. in the exchange kernel)
 Following reciprocal coordinates:   # in IRBZ
  0.000000  0.000000  0.000000    1.00000000   1 t-inv F

 SYSTEM =  unknown system
 POSCAR =  Si1 C214

 Startparameter for this run:
   NWRITE =      2    write-flag & timer
   PREC   = accura    normal or accurate (medium, high low for compatibility)
   ISTART =      1    job   : 0-new  1-cont  2-samecut
   ICHARG =      2    charge: 1-file 2-atom 10-const
   ISPIN  =      2    spin polarized calculation?
   LNONCOLLINEAR =      F non collinear calculations
   LSORBIT =      F    spin-orbit coupling
   INIWAV =      1    electr: 0-lowe 1-rand  2-diag
   LASPH  =      F    aspherical Exc in radial PAW
   METAGGA=      F    non-selfconsistent MetaGGA calc.

 Electronic Relaxation 1
   ENCUT  =  400.0 eV  29.40 Ry    5.42 a.u.  17.36 17.36 17.36*2*pi/ulx,y,z
   ENINI  =  400.0     initial cutoff
   ENAUG  =  644.9 eV  augmentation charge cutoff
   NELM   =    100;   NELMIN=  2; NELMDL=  0     # of ELM steps
   EDIFF  = 0.1E-04   stopping-criterion for ELM
   LREAL  =      T    real-space projection
   NLSPLINE    = F    spline interpolate recip. space projectors
   LCOMPAT=      F    compatible to vasp.4.4
   GGA_COMPAT  = T    GGA compatible to vasp.4.4-vasp.4.6
   LMAXPAW     = -100 max onsite density
   LMAXMIX     =    2 max onsite mixed and CHGCAR
   VOSKOWN=      0    Vosko Wilk Nusair interpolation
   ROPT   =   -0.00025  -0.00025
 Ionic relaxation
   EDIFFG = -.1E-01   stopping-criterion for IOM
   NSW    =     99    number of steps for IOM
   NBLOCK =      1;   KBLOCK =     99    inner block; outer block
   IBRION =      2    ionic relax: 0-MD 1-quasi-New 2-CG
   NFREE  =      1    steps in history (QN), initial steepest desc. (CG)
   ISIF   =      2    stress and relaxation
   IWAVPR =     11    prediction:  0-non 1-charg 2-wave 3-comb
   ISYM   =      0    0-nonsym 1-usesym 2-fastsym
   LCORR  =      T    Harris-Foulkes like correction to forces

   POTIM  = 0.5000    time-step for ionic-motion
   TEIN   =    0.0    initial temperature
   TEBEG  =    0.0;   TEEND  =   0.0 temperature during run
   SMASS  =  -3.00    Nose mass-parameter (am)
   estimated Nose-frequenzy (Omega)   =  0.10E-29 period in steps =****** mass=  -0.259E-26a.u.
   SCALEE = 1.0000    scale energy and forces
   NPACO  =    256;   APACO  = 16.0  distance and # of slots for P.C.
   PSTRESS=    0.0 pullay stress

  Mass of Ions in am
   POMASS =  28.09 12.01
  Ionic Valenz
   ZVAL   =   4.00  4.00
  Atomic Wigner-Seitz radii
  virtual crystal weights
   VCA    =   1.00  1.00
   NELECT =     860.0000    total number of electrons
   NUPDOWN=       2.0000    fix difference up-down

 DOS related values:
   EMIN   =  10.00;   EMAX   =-10.00  energy-range for DOS
   EFERMI =   0.00
   ISMEAR =    -2;   SIGMA  =   0.05  broadening in eV -4-tet -1-fermi 0-gaus

 Electronic relaxation 2 (details)
[...]
   -.402E+00 0.459E+01 0.230E+00   0.431E+00 -.464E+01 -.225E+00   -.240E-01 0.504E-01 -.357E-02
   0.174E+00 -.485E+00 0.667E+00   -.136E+00 0.484E+00 -.699E+00   -.356E-01 0.133E-02 0.279E-01
   0.160E+00 -.439E+01 -.385E+01   -.158E+00 0.446E+01 0.393E+01   -.285E-02 -.690E-01 -.868E-01
   -.313E+01 -.451E+01 0.312E+01   0.321E+01 0.456E+01 -.318E+01   -.817E-01 -.451E-01 0.592E-01
   -.412E+01 -.402E+01 0.437E+01   0.414E+01 0.403E+01 -.443E+01   -.142E-01 -.137E-01 0.575E-01
   -.435E+01 -.473E+01 -.204E+02   0.448E+01 0.470E+01 0.208E+02   -.135E+00 0.227E-01 -.412E+00
   -.422E+02 -.418E+02 0.457E+02   0.459E+02 0.454E+02 -.495E+02   -.351E+01 -.342E+01 0.364E+01
   -.638E+01 0.386E+01 0.475E+01   0.646E+01 -.388E+01 -.491E+01   -.707E-01 0.212E-01 0.156E+00
   -.224E+01 0.696E+01 -.706E+01   0.236E+01 -.703E+01 0.712E+01   -.111E+00 0.539E-01 -.491E-01
   -.238E+02 0.198E+02 0.670E+01   0.239E+02 -.202E+02 -.633E+01   -.111E+00 0.317E+00 -.349E+00
   0.301E+01 0.110E+01 0.291E+01   -.306E+01 -.114E+01 -.298E+01   0.488E-01 0.478E-01 0.677E-01
   0.284E+01 -.823E+00 -.204E+01   -.295E+01 0.842E+00 0.209E+01   0.957E-01 -.190E-01 -.525E-01
   0.446E+01 -.417E+00 0.108E+00   -.452E+01 0.454E+00 -.128E+00   0.555E-01 -.313E-01 0.196E-01
   0.398E+01 -.643E+01 0.494E+01   -.400E+01 0.652E+01 -.502E+01   0.246E-01 -.744E-01 0.774E-01
   0.646E+01 -.190E+01 -.675E+01   -.661E+01 0.209E+01 0.690E+01   0.138E+00 -.187E+00 -.137E+00
   0.196E+02 -.238E+02 0.612E+01   -.198E+02 0.237E+02 -.612E+01   0.234E+00 0.158E+00 0.166E-02
   0.624E+01 0.642E+01 0.882E+01   -.639E+01 -.654E+01 -.901E+01   0.141E+00 0.122E+00 0.195E+00
   0.566E+01 0.563E+01 -.651E+01   -.570E+01 -.566E+01 0.671E+01   0.396E-01 0.200E-01 -.185E+00
   0.217E+02 0.217E+02 -.479E+01   -.224E+02 -.223E+02 0.469E+01   0.646E+00 0.583E+00 0.103E+00
   0.483E+01 0.490E+01 0.452E+01   -.489E+01 -.494E+01 -.458E+01   0.617E-01 0.378E-01 0.643E-01
   0.161E+01 0.162E+01 -.486E+00   -.166E+01 -.167E+01 0.519E+00   0.509E-01 0.443E-01 -.262E-01
   0.906E+01 0.911E+01 -.766E+01   -.936E+01 -.937E+01 0.795E+01   0.288E+00 0.249E+00 -.269E+00
   0.175E+01 -.922E+00 0.144E+01   -.178E+01 0.911E+00 -.147E+01   0.291E-01 0.163E-01 0.241E-01
   0.143E+01 -.209E+01 -.166E+01   -.145E+01 0.211E+01 0.175E+01   0.104E-01 -.214E-01 -.837E-01
   0.399E+01 -.208E+01 -.308E+01   -.409E+01 0.215E+01 0.303E+01   0.900E-01 -.663E-01 0.484E-01
   0.935E+01 -.793E+01 0.888E+01   -.955E+01 0.818E+01 -.912E+01   0.196E+00 -.232E+00 0.233E+00
   0.439E+01 -.300E+01 -.226E+01   -.442E+01 0.295E+01 0.230E+01   0.257E-01 0.490E-01 -.340E-01
   0.239E+02 -.684E+01 -.714E+01   -.244E+02 0.699E+01 0.721E+01   0.425E+00 -.136E+00 -.619E-01
   -.703E+00 0.166E+01 0.134E+01   0.734E+00 -.170E+01 -.139E+01   -.245E-01 0.449E-01 0.520E-01
   -.206E+01 0.147E+01 -.178E+01   0.208E+01 -.147E+01 0.183E+01   -.211E-01 -.341E-02 -.495E-01
   -.206E+01 0.419E+01 -.280E+01   0.213E+01 -.420E+01 0.281E+01   -.560E-01 0.369E-02 -.853E-03
   -.196E+01 -.208E+01 0.116E+01   0.204E+01 0.213E+01 -.117E+01   -.722E-01 -.435E-01 0.461E-02
   -.365E+01 -.368E+01 -.353E+01   0.372E+01 0.375E+01 0.359E+01   -.651E-01 -.644E-01 -.575E-01
   -.503E+01 -.515E+01 -.111E+00   0.508E+01 0.518E+01 0.135E+00   -.607E-01 -.334E-01 -.260E-01
   -.255E+01 -.320E+01 0.383E+01   0.257E+01 0.316E+01 -.392E+01   -.119E-01 0.378E-01 0.767E-01
   -.535E+01 -.420E+00 -.486E+01   0.538E+01 0.458E+00 0.492E+01   -.311E-01 -.360E-01 -.620E-01
   -.113E+02 0.984E+00 0.115E+01   0.114E+02 -.977E+00 -.116E+01   -.121E+00 -.113E-01 0.887E-03
   -.773E+01 0.913E+01 0.860E+01   0.806E+01 -.940E+01 -.895E+01   -.306E+00 0.269E+00 0.341E+00
   -.273E+01 0.462E+01 -.233E+01   0.274E+01 -.458E+01 0.234E+01   -.232E-02 -.373E-01 -.671E-02
   -.695E+01 0.241E+02 -.680E+01   0.703E+01 -.246E+02 0.696E+01   -.765E-01 0.470E+00 -.148E+00
   -.317E+01 -.264E+01 0.383E+01   0.313E+01 0.264E+01 -.395E+01   0.443E-01 0.930E-02 0.101E+00
   -.306E+00 -.533E+01 -.473E+01   0.378E+00 0.538E+01 0.485E+01   -.703E-01 -.487E-01 -.114E+00
   0.109E+01 -.114E+02 0.990E+00   -.108E+01 0.115E+02 -.988E+00   -.129E-01 -.134E+00 -.680E-02
   -.704E+01 -.666E+01 0.235E+02   0.710E+01 0.687E+01 -.239E+02   -.526E-01 -.191E+00 0.365E+00
   0.109E+01 0.834E+00 -.112E+02   -.113E+01 -.878E+00 0.113E+02   0.373E-01 0.376E-01 -.107E+00
   0.421E+00 0.165E+01 0.331E+00   -.444E+00 -.167E+01 -.355E+00   0.241E-01 0.222E-01 0.247E-01
   -.453E+00 0.118E+01 0.387E+00   0.462E+00 -.117E+01 -.346E+00   -.692E-02 -.146E-01 -.379E-01
   0.114E+01 0.304E+01 0.270E+01   -.115E+01 -.309E+01 -.274E+01   0.215E-01 0.489E-01 0.402E-01
   -.113E+01 -.688E+00 -.105E+01   0.113E+01 0.704E+00 0.106E+01   -.168E-02 -.152E-01 -.139E-01
   -.451E+01 -.413E+01 0.287E+00   0.457E+01 0.419E+01 -.281E+00   -.576E-01 -.586E-01 -.808E-02
   -.116E+01 -.247E+01 0.284E+01   0.116E+01 0.248E+01 -.288E+01   0.639E-03 -.276E-02 0.362E-01
[...]
   -.626E+01 -.643E+01 -.882E+01   0.640E+01 0.656E+01 0.901E+01   -.140E+00 -.121E+00 -.195E+00
   -.217E+02 -.217E+02 0.477E+01   0.224E+02 0.223E+02 -.467E+01   -.645E+00 -.587E+00 -.105E+00
   -.645E+01 0.191E+01 0.674E+01   0.660E+01 -.211E+01 -.689E+01   -.139E+00 0.186E+00 0.139E+00
   -.397E+01 0.644E+01 -.494E+01   0.400E+01 -.653E+01 0.501E+01   -.281E-01 0.727E-01 -.747E-01
   -.196E+02 0.238E+02 -.612E+01   0.199E+02 -.237E+02 0.612E+01   -.230E+00 -.157E+00 0.207E-02
   -.157E+00 0.439E+01 0.385E+01   0.156E+00 -.446E+01 -.393E+01   0.230E-02 0.703E-01 0.862E-01
   -.180E+00 0.494E+00 -.641E+00   0.141E+00 -.491E+00 0.674E+00   0.360E-01 -.308E-02 -.293E-01
   0.312E+01 0.451E+01 -.313E+01   -.320E+01 -.455E+01 0.319E+01   0.809E-01 0.444E-01 -.598E-01
   0.223E+01 -.694E+01 0.707E+01   -.235E+01 0.701E+01 -.713E+01   0.109E+00 -.552E-01 0.489E-01
   0.638E+01 -.386E+01 -.475E+01   -.646E+01 0.388E+01 0.491E+01   0.690E-01 -.185E-01 -.155E+00
   0.238E+02 -.198E+02 -.668E+01   -.239E+02 0.202E+02 0.632E+01   0.112E+00 -.319E+00 0.344E+00
   0.436E+01 0.472E+01 0.204E+02   -.448E+01 -.469E+01 -.208E+02   0.132E+00 -.218E-01 0.413E+00
   0.414E+01 0.402E+01 -.438E+01   -.415E+01 -.404E+01 0.444E+01   0.139E-01 0.158E-01 -.571E-01
   0.422E+02 0.418E+02 -.457E+02   -.459E+02 -.454E+02 0.495E+02   0.351E+01 0.343E+01 -.364E+01
   0.208E-02 -.125E-01 -.251E-01   -.568E-13 -.320E-12 0.355E-12   0.140E-03 0.470E-01 0.485E-01

 POSITION                                       TOTAL-FORCE (eV/Angst)
      5.32306      5.32303      5.32305        -0.000045     -0.000137      0.000184
      0.44081      0.44117      9.31653         0.000618      0.001384     -0.000764
      0.44827      0.44843      2.21883         0.000421     -0.001908      0.000164
      0.44397      0.44436      5.76833         0.000529     -0.001131     -0.000665
      0.43994      3.98988      9.32357        -0.001317      0.000376      0.000410
      0.45553      3.99614      2.22388        -0.000607      0.000973     -0.002478
      0.44562      3.99266      5.76966         0.000554     -0.000979      0.001724
      0.43366      7.54017      9.31216         0.002407      0.000411      0.002187
      0.44198      7.54559      2.21247        -0.001522     -0.001716     -0.000471
      0.43571      7.54278      5.76499        -0.000929      0.002650     -0.000117
      3.98985      0.43984      9.32342         0.001083     -0.001027      0.000820
      3.99647      0.45575      2.22414         0.001348      0.000117     -0.002294
      3.99302      0.44598      5.76954        -0.001970      0.001125      0.000402
      3.98819      3.98846      9.32343        -0.000438     -0.000409     -0.002100
      4.01323      4.01201      2.24304         0.000445      0.000971     -0.000576
      3.97608      3.97851      5.87093        -0.000310      0.000250     -0.001540
      3.98358      7.54103      9.31637         0.001365     -0.000392      0.002391
      3.98635      7.56387      2.19810        -0.000712      0.000124      0.000086
      3.94915      7.57089      5.77180        -0.000972      0.002101      0.000131
      7.53959      0.43365      9.31180        -0.000709      0.002302      0.001019
      7.54498      0.44262      2.21245        -0.001496     -0.000990     -0.000810
      7.54250      0.43572      5.76482         0.002500     -0.000256     -0.000459
      7.54098      3.98363      9.31674         0.001219      0.002881      0.003112
      7.56421      3.98741      2.19797         0.000339     -0.001295     -0.002316
      7.56848      3.94920      5.76718         0.000982     -0.001279     -0.000198
      7.52838      7.52869      9.29662        -0.000318     -0.000378      0.001700
      7.54668      7.54705      2.20452        -0.000262     -0.001204      0.001553
      7.50571      7.50595      5.73856        -0.000138     -0.001892      0.001051
      8.41691      8.41718      8.41679         0.000254     -0.000035      0.003234
      8.42978      8.42980      1.31989        -0.001868     -0.001992      0.000203
      8.42214      8.42216      4.86773        -0.000063     -0.000336      0.000279
      8.42983      1.31941      8.42988        -0.000498      0.000604     -0.001193
      8.43402      1.32924      1.33056        -0.000543     -0.000352     -0.002886
      8.44245      1.31647      4.87870         0.000474     -0.000082      0.000688
      8.42111      4.86677      8.42044         0.001156     -0.000038     -0.000496
      8.44144      4.87845      1.31806         0.000091      0.001318     -0.002553
      8.43444      4.87397      4.87253         0.001521      0.000155      0.002230
      1.31984      8.42964      8.42975        -0.000204      0.000075     -0.000620
      1.32970      8.43404      1.33050        -0.000292     -0.000378     -0.000645
      1.31767      8.44201      4.87962         0.001000      0.000420      0.001278
      1.33002      1.32942      8.43387        -0.001115      0.000048      0.001223
      1.33776      1.33767      1.33766         0.000455      0.000227     -0.000868
      1.33854      1.33821      4.88510        -0.001857     -0.002235     -0.001144
      1.31651      4.87805      8.44203        -0.000256     -0.001320     -0.001043
      1.33855      4.88502      1.33920         0.000340      0.002315     -0.001978
      1.33566      4.88719      4.88628        -0.000876     -0.000661     -0.001669
      4.86770      8.42066      8.42016         0.000942      0.001910      0.000878
      4.87956      8.44103      1.31883         0.002230     -0.000462     -0.000638
      4.87313      8.43319      4.87355         0.000440      0.000333      0.001935
      4.87839      1.31616      8.44203        -0.001070      0.001166     -0.001820
      4.88551      1.33830      1.33929         0.001174     -0.001492     -0.003477
      4.88709      1.33568      4.88625        -0.001183     -0.000147     -0.001489
      4.87356      4.87504      8.43331         0.002368      0.002643      0.001400
      4.88627      4.88645      1.33595        -0.001179     -0.001376      0.001818
      0.44116      9.31714      0.44073         0.001446     -0.000376     -0.000077
      0.43983      9.32386      3.98982        -0.000407      0.001183      0.000789
      0.43343      9.31231      7.53962         0.001195     -0.000393     -0.000092
      0.44829      2.21874      0.44846        -0.000158      0.000498     -0.000837
      0.45546      2.22411      3.99623        -0.000129      0.000097     -0.000092
      0.44177      2.21216      7.54549        -0.000085      0.001019      0.001369
[...]
      3.09940      3.09907      8.44151         0.000126      0.001158     -0.001463
      3.11765      3.11733      1.34949         0.000375      0.000391     -0.001622
      3.14028      3.14005      4.90738         0.000008      0.001829     -0.001017
      3.08189      6.65872      8.44811        -0.000335      0.001565      0.002265
      3.10508      6.66249      1.32930        -0.001325     -0.002645     -0.003083
      3.07753      6.69690      4.87890        -0.000945      0.000967     -0.000041
      6.64961     10.19027      8.42187        -0.001555     -0.000443      0.002170
      6.65616     10.20623      1.32271        -0.001147      0.000831     -0.000837
      6.65302     10.20011      4.87651         0.001975     -0.000825     -0.000398
      6.65971      3.08225      8.44798         0.000893     -0.000088     -0.000006
      6.66251      3.10507      1.32971        -0.001567      0.000491     -0.002238
      6.69692      3.07522      4.87434         0.000979     -0.001893      0.000200
      6.63291      6.63405      8.40300        -0.000186     -0.001151      0.000996
      6.65791      6.65762      1.32258         0.000349      0.000655      0.001573
      6.66995      6.66750      4.77503         0.000185     -0.000464      0.001953
    total drift:                                0.002319      0.037313      0.026374

  FREE ENERGIE OF THE ION-ELECTRON SYSTEM (eV)
  free  energy   TOTEN  =     -2409.22519883 eV

  energy  without entropy=    -2409.22519883  energy(sigma->0) =    -2409.22519883

 d Force = 0.4143932E-04[ 0.838E-06, 0.820E-04]  d Energy = 0.3571859E-04 0.572E-05
 d Force = 0.5448456E-01[ 0.544E-01, 0.546E-01]  d Ewald  = 0.5448427E-01 0.295E-06

 reached required accuracy - stopping structural energy minimisation
 writing wavefunctions

 total charge

[...]

 magnetization (x)

# of ion       s       p       d       tot
    1       -0.009   0.061   0.000   0.052
    2        0.000   0.003   0.000   0.003
    3       -0.000   0.002   0.000   0.002
    4        0.000   0.003   0.000   0.003
    5        0.000   0.002   0.000   0.002
    6        0.000   0.002   0.000   0.002
    7        0.000   0.002   0.000   0.002
    8       -0.000   0.001   0.000   0.001
    9        0.000   0.003   0.000   0.003
   10       -0.000   0.001   0.000   0.001
   11        0.000   0.002   0.000   0.002
   12        0.000   0.001   0.000   0.001
   13        0.000   0.002   0.000   0.002
   14        0.000   0.005   0.000   0.005
   15        0.000   0.004   0.000   0.004
   16        0.005   0.073   0.000   0.078
   17       -0.000   0.001   0.000   0.001
   18        0.002   0.017   0.000   0.019
   19       -0.001   0.007   0.000   0.006
   20       -0.000   0.001   0.000   0.001
   21        0.000   0.002   0.000   0.002
   22        0.000   0.000   0.000   0.000
   23       -0.000   0.001   0.000   0.001
   24        0.001   0.013   0.000   0.014
   25       -0.000   0.009   0.000   0.008
   26       -0.000   0.001   0.000   0.001
   27       -0.000  -0.000   0.000  -0.000
   28       -0.001   0.005   0.000   0.005
   29        0.000   0.001   0.000   0.001
   30       -0.000   0.001   0.000   0.001
   31        0.001   0.015   0.000   0.016
   32        0.000   0.003   0.000   0.003
   33        0.000   0.002   0.000   0.002
   34        0.000   0.002   0.000   0.002
   35        0.001   0.012   0.000   0.014
   36        0.000   0.006   0.000   0.006
   37        0.000   0.003   0.000   0.003
   38        0.000   0.002   0.000   0.002
   39        0.000   0.002   0.000   0.002
   40        0.000   0.004   0.000   0.004
   41        0.000   0.001   0.000   0.001
   42        0.000   0.002   0.000   0.002
   43        0.000   0.000   0.000   0.000
   44        0.000   0.004   0.000   0.005
   45       -0.000   0.002   0.000   0.002
   46       -0.000   0.001   0.000   0.001
   47        0.001   0.010   0.000   0.011
   48        0.000   0.007   0.000   0.007
   49        0.000   0.002   0.000   0.002
   50        0.000   0.004   0.000   0.004
   51        0.000   0.001   0.000   0.001
   52       -0.000   0.001   0.000   0.001
   53       -0.000   0.004   0.000   0.004
   54       -0.000   0.001   0.000   0.001
   55        0.000   0.002   0.000   0.002
   56        0.000   0.003   0.000   0.004
   57        0.000   0.002   0.000   0.002
   58        0.000   0.001   0.000   0.001
   59        0.000   0.001   0.000   0.001
   60        0.000   0.006   0.000   0.006
[...]
  201       -0.000  -0.000   0.000  -0.000
  202       -0.000   0.001   0.000   0.001
  203       -0.001   0.005   0.000   0.005
  204        0.001   0.013   0.000   0.014
  205       -0.000   0.001   0.000   0.001
  206       -0.000   0.009   0.000   0.008
  207       -0.000   0.001   0.000   0.001
  208        0.000   0.002   0.000   0.002
  209        0.000   0.002   0.000   0.002
  210        0.002   0.017   0.000   0.019
  211       -0.000   0.001   0.000   0.001
  212       -0.001   0.007   0.000   0.006
  213        0.000   0.004   0.000   0.004
  214        0.000   0.005   0.000   0.005
  215        0.005   0.073   0.000   0.078
tot          0.067   1.364   0.000   1.431