 vasp.5.4.4.18Apr17-6-g9f103f2a35 (build Jun 14 2024 12:30:39) gamma-only
 executed on NVIDIA22.7_CrayMPICH date 2025.02.13  20:12:20

 INCAR:
 POTCAR:   PAW_PBE Si 05Jan2001
 POTCAR:   PAW_PBE C 08Apr2002
 POTCAR:   PAW_PBE Si 05Jan2001
   VRHFIN =Si: s2p2

   TITEL  = PAW_PBE Si 05Jan2001
   POMASS =   28.085; ZVAL   =    4.000    mass and valenz
   ENMAX  =  245.345; ENMIN  =  184.009 eV
   QCUT   =   -4.246; QGAM   =    8.493    optimization parameters

   Description
     l     E      TYP  RCUT    TYP  RCUT
     0   .000     23  1.900
     0   .000     23  1.900
     1   .000     23  1.900
     1   .000     23  1.900
     2   .000      7  1.900

 POTCAR:   PAW_PBE C 08Apr2002
   VRHFIN =C: s2p2

   TITEL  = PAW_PBE C 08Apr2002
   POMASS =   12.011; ZVAL   =    4.000    mass and valenz
   ENMAX  =  400.000; ENMIN  =  300.000 eV
   QCUT   =   -5.516; QGAM   =   11.032    optimization parameters

   Description
     l     E      TYP  RCUT    TYP  RCUT
     0   .000     23  1.200
     0   .000     23  1.200
     1   .000     23  1.500
     1  2.500     23  1.500
     2   .000      7  1.500

 Optimization of the real space projectors (new method)

 maximal supplied QI-value         = 19.84
 optimisation between [QCUT,QGAM] = [ 10.12, 20.44] = [ 28.68,116.96] Ry
 Optimized for a Real-space Cutoff    1.38 Angstroem

   l    n(q)    QCUT    max X(q) W(low)/X(q) W(high)/X(q)  e(spline)
   0      8    10.119     8.708    0.16E-04    0.67E-05    0.60E-08
   0      8    10.119   106.241    0.56E-04    0.11E-03    0.54E-07
   1      8    10.119     5.901    0.16E-04    0.16E-05    0.22E-07
   1      8    10.119    73.241    0.22E-03    0.17E-03    0.18E-06
 Optimization of the real space projectors (new method)

 maximal supplied QI-value         = 25.13
 optimisation between [QCUT,QGAM] = [ 10.05, 20.36] = [ 28.30,116.06] Ry
 Optimized for a Real-space Cutoff    1.38 Angstroem

   l    n(q)    QCUT    max X(q) W(low)/X(q) W(high)/X(q)  e(spline)
   0      8    10.053     5.582    0.33E-04    0.15E-04    0.75E-07
   0      8    10.053    69.432    0.23E-03    0.38E-03    0.25E-06
   1      8    10.053     2.780    0.76E-04    0.11E-03    0.15E-06
   1      8    10.053     4.549    0.19E-03    0.19E-03    0.27E-06
 PAW_PBE Si 05Jan2001                   :
 PAW_PBE C 08Apr2002                    :

 POSCAR: generated by phonopy
  positions in direct lattice
  velocities in cartesian coordinates
 exchange correlation table for  LEXCH =        8
   RHO(1)=    0.500       N(1)  =     2000
   RHO(2)=  100.500       N(2)  =     4000

 ion  position               nearest neighbor table
   1  0.000  0.000  0.000-  26 1.98 189 1.98 136 1.98  75 1.98  82 1.98 117 1.98
   2  0.205  0.205  0.039- 189 1.54 139 1.54  91 1.54  40 1.56
   3  0.207  0.207  0.373-  41 1.53  92 1.54 140 1.54 190 1.55
   4  0.209  0.209  0.707-  42 1.53 191 1.54 141 1.54  93 1.54
   5  0.209  0.541  0.042-  94 1.53 192 1.54 142 1.54  43 1.54
   6  0.208  0.541  0.375-  95 1.53  44 1.53 143 1.54 193 1.54
   7  0.209  0.542  0.708-  45 1.54  96 1.54 144 1.54 194 1.54
   8  0.211  0.871  0.042- 136 1.51 195 1.52  97 1.53  37 1.55
   9  0.208  0.874  0.375- 196 1.53  38 1.54  98 1.54 137 1.54
  10  0.211  0.875  0.706- 138 1.53  39 1.53 197 1.53  99 1.54
  11  0.541  0.209  0.042- 148 1.53 198 1.54 100 1.54  49 1.54
  12  0.541  0.208  0.375- 149 1.53  50 1.53 101 1.54 199 1.54
  13  0.542  0.209  0.708-  51 1.54 150 1.54 102 1.54 200 1.54
  14  0.542  0.542  0.042- 103 1.53 151 1.53 201 1.54  52 1.54
  15  0.541  0.541  0.375- 104 1.54 152 1.54  53 1.54 202 1.54
  16  0.542  0.542  0.708- 153 1.53 105 1.53  54 1.54 203 1.54
  17  0.542  0.875  0.042- 145 1.53 204 1.54 106 1.54  46 1.54
  18  0.541  0.875  0.376-  47 1.53 146 1.53 205 1.54 107 1.54
  19  0.543  0.875  0.709- 147 1.53  48 1.53 108 1.54 206 1.54
  20  0.871  0.211  0.042-  82 1.51 207 1.52 157 1.53  31 1.55
  21  0.874  0.208  0.375- 208 1.53  32 1.54 158 1.54  83 1.54
  22  0.875  0.211  0.706-  84 1.53  33 1.53 209 1.53 159 1.54
  23  0.875  0.542  0.042-  85 1.53 210 1.54 160 1.54  34 1.54
  24  0.875  0.541  0.376-  35 1.53  86 1.53 211 1.54 161 1.54
  25  0.875  0.543  0.709-  87 1.53  36 1.53 162 1.54 212 1.54
  26  0.874  0.874  0.052-  88 1.51 154 1.51 213 1.54   1 1.98
  27  0.875  0.875  0.376-  29 1.53 214 1.54 155 1.54  89 1.54
  28  0.877  0.877  0.711-  30 1.53  90 1.54 156 1.54 215 1.55
  29  0.958  0.958  0.292- 163 1.53  27 1.53 115 1.55  73 1.55
  30  0.959  0.959  0.625- 164 1.53  28 1.53 116 1.54  74 1.54
  31  0.958  0.292  0.958- 165 1.53  78 1.53  20 1.55 111 1.55
  32  0.957  0.291  0.291-  21 1.54  76 1.54 166 1.54 109 1.56
  33  0.958  0.293  0.624-  22 1.53  77 1.53 167 1.54 110 1.54
  34  0.959  0.625  0.959- 168 1.53  81 1.53  23 1.54 114 1.54
  35  0.958  0.624  0.293-  79 1.53  24 1.53 169 1.54 112 1.54
  36  0.959  0.626  0.626-  25 1.53  80 1.53 170 1.54 113 1.54
  37  0.292  0.958  0.958- 171 1.53 126 1.53   8 1.55  57 1.55
  38  0.291  0.957  0.291-   9 1.54 124 1.54 172 1.54  55 1.56
  39  0.293  0.958  0.624-  10 1.53 125 1.53 173 1.54  56 1.54
  40  0.291  0.291  0.957-  60 1.54 120 1.54 174 1.54   2 1.56
  41  0.291  0.291  0.291-   3 1.53  58 1.53 118 1.53 175 1.54
  42  0.292  0.292  0.624-   4 1.53  59 1.53 119 1.53 176 1.54
  43  0.293  0.624  0.958-  63 1.53 123 1.53 177 1.54   5 1.54
  44  0.292  0.624  0.292-  61 1.53   6 1.53 121 1.53 178 1.54
  45  0.292  0.625  0.625-   7 1.54  62 1.54 122 1.54 179 1.54
  46  0.625  0.959  0.959- 180 1.53 135 1.53  17 1.54  66 1.54
  47  0.624  0.958  0.293- 133 1.53  18 1.53 181 1.54  64 1.54
  48  0.626  0.959  0.626-  19 1.53 134 1.53 182 1.54  65 1.54
  49  0.624  0.293  0.958- 129 1.53  69 1.53 183 1.54  11 1.54
  50  0.624  0.292  0.292- 127 1.53  12 1.53  67 1.53 184 1.54
  51  0.625  0.292  0.625-  13 1.54 128 1.54  68 1.54 185 1.54
  52  0.626  0.626  0.959-  72 1.53 132 1.53 186 1.54  14 1.54
  53  0.625  0.625  0.292-  70 1.54 130 1.54  15 1.54 187 1.54
  54  0.626  0.626  0.626-  16 1.54 131 1.54  71 1.54 188 1.54
  55  0.205  0.039  0.205- 136 1.54  91 1.54 190 1.54  38 1.56
  56  0.209  0.042  0.541-  92 1.53 137 1.54 191 1.54  39 1.54
  57  0.211  0.042  0.871- 189 1.51 138 1.52  93 1.53  37 1.55
  58  0.207  0.373  0.207-  41 1.53  94 1.54 193 1.54 139 1.55
  59  0.208  0.375  0.541-  95 1.53  42 1.53 194 1.54 140 1.54
  60  0.208  0.375  0.874- 141 1.53  40 1.54  96 1.54 192 1.54
[...]
 201  0.458  0.458  0.958-  69 1.53 123 1.53  14 1.54 174 1.54
 202  0.458  0.458  0.292-  67 1.53 121 1.53 175 1.54  15 1.54
 203  0.459  0.459  0.625-  68 1.54 122 1.54 176 1.54  16 1.54
 204  0.459  0.791  0.958-  72 1.53  17 1.54 126 1.54 177 1.54
 205  0.458  0.791  0.292- 178 1.54  70 1.54 124 1.54  18 1.54
 206  0.459  0.792  0.625-  71 1.53 179 1.53 125 1.54  19 1.54
 207  0.789  0.129  0.958-  75 1.51  20 1.52 129 1.53 180 1.55
 208  0.789  0.125  0.294-  73 1.53 181 1.53  21 1.53 127 1.54
 209  0.792  0.126  0.625-  22 1.53 182 1.54 128 1.54  74 1.54
 210  0.791  0.459  0.958- 132 1.53  23 1.54  78 1.54 183 1.54
 211  0.791  0.458  0.292- 184 1.54 130 1.54  76 1.54  24 1.54
 212  0.792  0.459  0.625- 131 1.53 185 1.53  77 1.54  25 1.54
 213  0.795  0.795  0.961-  26 1.54  81 1.54 135 1.54 186 1.56
 214  0.791  0.791  0.293- 187 1.53  27 1.54 133 1.54  79 1.54
 215  0.793  0.793  0.627- 188 1.53 134 1.54  80 1.54  28 1.55

IMPORTANT INFORMATION: All symmetrisations will be switched off!
NOSYMM: (Re-)initialisation of all symmetry stuff for point group C_1.

 KPOINTS: pymatgen v1.1 with grid density = 2210 /

Automatic generation of k-mesh.
Space group operators:
 irot       det(A)        alpha          n_x          n_y          n_z        tau_x        tau_y        tau_z
    1     1.000000     0.000000     1.000000     0.000000     0.000000     0.000000     0.000000     0.000000

 Subroutine IBZKPT returns following result:

 Found      1 irreducible k-points:

 Following reciprocal coordinates:
            Coordinates               Weight
  0.000000  0.000000  0.000000      1.000000

 Following cartesian coordinates:
            Coordinates               Weight
  0.000000  0.000000  0.000000      1.000000

 Subroutine IBZKPT_HF returns following result:

 Found      1 k-points in 1st BZ
 the following      1 k-points will be used (e.g. in the exchange kernel)
 Following reciprocal coordinates:   # in IRBZ
  0.000000  0.000000  0.000000    1.00000000   1 t-inv F

 SYSTEM =  unknown system
 POSCAR =  generated by phonopy

 Startparameter for this run:
   NWRITE =      2    write-flag & timer
   PREC   = accura    normal or accurate (medium, high low for compatibility)
   ISTART =      1    job   : 0-new  1-cont  2-samecut
   ICHARG =      2    charge: 1-file 2-atom 10-const
   ISPIN  =      2    spin polarized calculation?
   LNONCOLLINEAR =      F non collinear calculations
   LSORBIT =      F    spin-orbit coupling
   INIWAV =      1    electr: 0-lowe 1-rand  2-diag
   LASPH  =      F    aspherical Exc in radial PAW
   METAGGA=      F    non-selfconsistent MetaGGA calc.

 Electronic Relaxation 1
   ENCUT  =  400.0 eV  29.40 Ry    5.42 a.u.  17.36 17.36 17.36*2*pi/ulx,y,z
   ENINI  =  400.0     initial cutoff
   ENAUG  =  644.9 eV  augmentation charge cutoff
   NELM   =    100;   NELMIN=  2; NELMDL=  0     # of ELM steps
   EDIFF  = 0.1E-04   stopping-criterion for ELM
   LREAL  =      T    real-space projection
   NLSPLINE    = F    spline interpolate recip. space projectors
   LCOMPAT=      F    compatible to vasp.4.4
   GGA_COMPAT  = T    GGA compatible to vasp.4.4-vasp.4.6
   LMAXPAW     = -100 max onsite density
   LMAXMIX     =    2 max onsite mixed and CHGCAR
   VOSKOWN=      0    Vosko Wilk Nusair interpolation
   ROPT   =   -0.00025  -0.00025
 Ionic relaxation
   EDIFFG = -.1E-01   stopping-criterion for IOM
   NSW    =     99    number of steps for IOM
   NBLOCK =      1;   KBLOCK =     99    inner block; outer block
   IBRION =      2    ionic relax: 0-MD 1-quasi-New 2-CG
   NFREE  =      1    steps in history (QN), initial steepest desc. (CG)
   ISIF   =      2    stress and relaxation
   IWAVPR =     11    prediction:  0-non 1-charg 2-wave 3-comb
   ISYM   =      0    0-nonsym 1-usesym 2-fastsym
   LCORR  =      T    Harris-Foulkes like correction to forces

   POTIM  = 0.5000    time-step for ionic-motion
   TEIN   =    0.0    initial temperature
   TEBEG  =    0.0;   TEEND  =   0.0 temperature during run
   SMASS  =  -3.00    Nose mass-parameter (am)
   estimated Nose-frequenzy (Omega)   =  0.10E-29 period in steps =****** mass=  -0.259E-26a.u.
   SCALEE = 1.0000    scale energy and forces
   NPACO  =    256;   APACO  = 16.0  distance and # of slots for P.C.
   PSTRESS=    0.0 pullay stress

  Mass of Ions in am
   POMASS =  28.09 12.01
  Ionic Valenz
   ZVAL   =   4.00  4.00
  Atomic Wigner-Seitz radii
  virtual crystal weights
   VCA    =   1.00  1.00
   NELECT =     860.0000    total number of electrons
   NUPDOWN=       2.0000    fix difference up-down

 DOS related values:
   EMIN   =  10.00;   EMAX   =-10.00  energy-range for DOS
   EFERMI =   0.00
   ISMEAR =    -2;   SIGMA  =   0.05  broadening in eV -4-tet -1-fermi 0-gaus

 Electronic relaxation 2 (details)
[...]
   0.624E+01 0.837E+01 -.183E+01   -.624E+01 -.824E+01 0.189E+01   -.108E-01 -.134E+00 -.589E-01
   -.338E+01 0.159E+01 0.213E+01   0.340E+01 -.157E+01 -.218E+01   -.151E-01 -.174E-01 0.557E-01
   -.148E+01 -.105E+01 0.416E+01   0.148E+01 0.102E+01 -.425E+01   0.537E-02 0.343E-01 0.890E-01
   -.250E+01 0.273E+01 0.161E+00   0.262E+01 -.279E+01 -.132E+00   -.117E+00 0.526E-01 -.272E-01
   -.666E-01 -.377E+01 0.224E+00   0.374E-01 0.381E+01 -.210E+00   0.260E-01 -.313E-01 -.151E-01
   -.172E+00 -.904E+00 0.138E+01   0.150E+00 0.916E+00 -.142E+01   0.213E-01 -.864E-02 0.406E-01
   0.228E+00 -.324E+00 -.164E+01   -.200E+00 0.327E+00 0.164E+01   -.264E-01 -.443E-02 -.110E-01
   -.108E+01 -.578E+01 -.270E+01   0.103E+01 0.589E+01 0.277E+01   0.381E-01 -.101E+00 -.697E-01
   -.440E+00 -.125E+01 0.229E+00   0.418E+00 0.120E+01 -.253E+00   0.208E-01 0.447E-01 0.209E-01
   -.301E+01 0.187E+01 -.444E+01   0.308E+01 -.185E+01 0.454E+01   -.690E-01 -.170E-01 -.102E+00
   -.304E+02 -.543E+01 0.118E+01   0.300E+02 0.562E+01 -.173E+01   0.447E+00 -.181E+00 0.525E+00
   -.693E+01 -.579E+01 0.183E+01   0.703E+01 0.568E+01 -.179E+01   -.102E+00 0.103E+00 -.357E-01
   -.379E+01 0.654E+01 -.376E+00   0.430E+01 -.678E+01 0.557E+00   -.485E+00 0.224E+00 -.175E+00
   0.893E+00 -.549E+01 -.220E+01   -.954E+00 0.553E+01 0.221E+01   0.562E-01 -.374E-01 -.109E-01
   0.322E+00 -.720E+00 0.888E+00   -.343E+00 0.770E+00 -.809E+00   0.188E-01 -.426E-01 -.758E-01
   0.354E+01 0.141E+01 -.520E+01   -.356E+01 -.149E+01 0.520E+01   0.185E-01 0.727E-01 -.158E-01
   0.279E+01 -.727E+02 -.208E+02   -.268E+01 0.778E+02 0.224E+02   -.114E+00 -.479E+01 -.153E+01
   0.930E+00 -.626E+01 -.177E+01   -.914E+00 0.638E+01 0.179E+01   -.181E-01 -.103E+00 -.264E-01
   -.106E+01 0.136E+02 -.166E+02   0.521E+00 -.138E+02 0.169E+02   0.509E+00 0.218E+00 -.271E+00
   0.150E+01 -.250E+02 0.561E+01   -.950E+00 0.254E+02 -.574E+01   -.523E+00 -.409E+00 0.124E+00
   -.127E+01 0.996E+01 -.516E+01   0.124E+01 -.100E+02 0.522E+01   0.351E-01 0.803E-01 -.639E-01
   -.216E+02 0.133E+02 0.452E+01   0.220E+02 -.132E+02 -.468E+01   -.412E+00 -.886E-01 0.154E+00
   -.124E+02 -.721E+01 0.655E+01   0.124E+02 0.722E+01 -.654E+01   -.624E-01 -.992E-02 -.102E-01
   -.484E+01 0.112E+01 -.685E+00   0.486E+01 -.138E+01 0.631E+00   -.181E-01 0.238E+00 0.524E-01
   0.852E+01 -.562E+01 -.522E+01   -.856E+01 0.563E+01 0.530E+01   0.424E-01 0.880E-03 -.742E-01
   -.100E+01 -.476E+01 -.163E+00   0.901E+00 0.483E+01 0.236E+00   0.917E-01 -.582E-01 -.664E-01
   0.340E+01 0.203E+01 -.648E+01   -.343E+01 -.203E+01 0.633E+01   0.343E-01 -.811E-03 0.132E+00
   0.217E+02 0.117E+02 0.640E+01   -.220E+02 -.121E+02 -.643E+01   0.258E+00 0.423E+00 0.305E-01
   0.110E+02 -.666E+01 0.471E+01   -.117E+02 0.702E+01 -.499E+01   0.617E+00 -.343E+00 0.277E+00
   0.491E+01 0.308E+01 -.706E+00   -.495E+01 -.294E+01 0.719E+00   0.291E-01 -.141E+00 -.128E-01
   -.165E+00 0.136E+02 0.567E+01   0.181E+00 -.140E+02 -.580E+01   -.165E-01 0.387E+00 0.131E+00
   0.279E-01 -.872E-01 0.806E+01   0.404E-01 0.881E-01 -.812E+01   -.646E-01 -.274E-03 0.692E-01
   -.205E+00 0.183E+01 0.131E+01   0.229E+00 -.185E+01 -.134E+01   -.212E-01 0.182E-01 0.263E-01
   0.466E+01 0.274E+01 -.401E+00   -.458E+01 -.281E+01 0.480E+00   -.849E-01 0.704E-01 -.744E-01
   0.102E+01 -.845E+00 0.143E+01   -.112E+01 0.915E+00 -.145E+01   0.925E-01 -.643E-01 0.276E-01
   0.251E+01 0.158E+01 -.176E+01   -.252E+01 -.156E+01 0.182E+01   0.384E-02 -.256E-01 -.533E-01
   -.875E+01 -.436E+01 -.531E+01   0.888E+01 0.445E+01 0.528E+01   -.122E+00 -.836E-01 0.261E-01
   0.205E+00 -.598E+01 -.739E+00   -.226E+00 0.596E+01 0.660E+00   0.249E-01 0.220E-01 0.742E-01
   -.311E+01 0.201E+01 -.561E+01   0.312E+01 -.202E+01 0.586E+01   -.133E-01 0.489E-02 -.247E+00
   -.441E+01 0.355E+01 -.916E+00   0.454E+01 -.348E+01 0.778E+00   -.105E+00 -.682E-01 0.130E+00
   -.195E+01 -.112E+01 0.143E+01   0.190E+01 0.108E+01 -.146E+01   0.569E-01 0.454E-01 0.253E-01
   -.196E+01 0.119E+01 -.117E+01   0.202E+01 -.123E+01 0.122E+01   -.479E-01 0.368E-01 -.489E-01
   0.124E+00 -.378E+01 -.605E+01   -.140E+00 0.380E+01 0.614E+01   0.148E-01 -.142E-01 -.887E-01
   -.775E-01 -.268E+01 -.139E+01   0.425E-01 0.271E+01 0.143E+01   0.329E-01 -.251E-01 -.441E-01
   0.260E-01 0.288E-01 -.630E+01   -.332E-01 -.308E-01 0.639E+01   0.765E-02 0.136E-02 -.899E-01
   0.194E+02 -.116E+02 0.227E+02   -.194E+02 0.118E+02 -.239E+02   0.791E-01 -.203E+00 0.120E+01
   0.274E+01 0.268E+01 0.211E+01   -.283E+01 -.267E+01 -.217E+01   0.884E-01 -.124E-01 0.579E-01
   0.988E+01 0.304E+02 0.110E+01   -.991E+01 -.304E+02 -.792E+00   0.151E-01 0.104E-02 -.279E+00
   -.202E+01 0.129E+01 0.124E+02   0.209E+01 -.131E+01 -.125E+02   -.707E-01 0.234E-01 0.932E-01
   -.101E+00 0.129E+01 0.399E+01   0.128E+00 -.130E+01 -.403E+01   -.259E-01 0.611E-02 0.472E-01
   -.109E+01 0.857E+01 0.105E+01   0.117E+01 -.869E+01 -.116E+01   -.792E-01 0.104E+00 0.109E+00
[...]
   -.231E+00 0.327E+00 0.164E+01   0.203E+00 -.329E+00 -.165E+01   0.271E-01 0.379E-02 0.104E-01
   0.170E+00 0.908E+00 -.137E+01   -.147E+00 -.919E+00 0.141E+01   -.215E-01 0.813E-02 -.404E-01
   0.338E+01 -.160E+01 -.213E+01   -.340E+01 0.158E+01 0.218E+01   0.154E-01 0.176E-01 -.560E-01
   0.249E+01 -.273E+01 -.165E+00   -.262E+01 0.279E+01 0.135E+00   0.117E+00 -.527E-01 0.281E-01
   0.148E+01 0.105E+01 -.416E+01   -.148E+01 -.101E+01 0.425E+01   -.461E-02 -.348E-01 -.901E-01
   -.309E+02 0.811E+01 -.223E+01   0.314E+02 -.754E+01 0.156E+01   -.423E+00 -.547E+00 0.630E+00
   -.623E+01 -.837E+01 0.182E+01   0.622E+01 0.824E+01 -.188E+01   0.120E-01 0.133E+00 0.547E-01
   -.663E+01 0.476E+01 -.575E+00   0.669E+01 -.502E+01 0.753E+00   -.598E-01 0.244E+00 -.170E+00
   -.336E+01 -.111E+01 -.266E+01   0.342E+01 0.117E+01 0.265E+01   -.536E-01 -.644E-01 0.158E-02
   -.322E+01 -.265E+01 0.604E+00   0.313E+01 0.263E+01 -.534E+00   0.909E-01 0.219E-01 -.685E-01
   -.896E+00 0.601E+00 -.407E+01   0.913E+00 -.656E+00 0.408E+01   -.129E-01 0.501E-01 -.108E-01
   0.219E+00 -.215E+02 -.232E+02   -.478E+00 0.219E+02 0.237E+02   0.246E+00 -.381E+00 -.530E+00
   0.711E+00 -.954E+01 -.215E+01   -.635E+00 0.971E+01 0.215E+01   -.716E-01 -.154E+00 -.324E-03
   -.400E+00 0.242E+01 -.123E+02   0.366E+00 -.247E+01 0.125E+02   0.323E-01 0.523E-01 -.191E+00
   -.167E-01 -.125E-01 0.419E-01   0.723E-12 0.455E-12 -.776E-12   0.351E-01 -.310E-01 -.514E-01

 POSITION                                       TOTAL-FORCE (eV/Angst)
      0.00011     -0.00017      0.00006         0.001553     -0.001047      0.000442
      0.00229      1.44418      2.76034        -0.000781      0.000317     -0.000332
      0.00066     -1.44346      4.84057         0.000313     -0.001509     -0.000169
     -0.00067     -4.33148      6.91281        -0.001175     -0.001343     -0.000840
     -2.50274      2.89555      4.86169        -0.001309     -0.001232     -0.000314
     -2.50299     -0.00151      6.90710         0.000476      0.001571      0.000312
     -2.50354     -2.89123      8.96168        -0.000001      0.000856      0.000551
     -4.97415      4.33338      6.91522        -0.004614     -0.001036      0.002290
     -5.01213      1.44474      8.95830        -0.000714      0.000483     -0.001480
     -4.99782     -1.42416     11.01058        -0.002405     -0.001056      0.001497
      2.50264      2.89688      4.86078         0.000620      0.000556      0.000345
      2.50298     -0.00274      6.90608         0.000867      0.000593     -0.001893
      2.50602     -2.89242      8.96299         0.000907     -0.000994     -0.000305
     -0.00031      4.34519      6.91690        -0.002148     -0.000152     -0.000022
     -0.00019      1.44551      8.96163         0.000196      0.000634      0.000196
      0.00055     -1.44541     11.01872         0.000517     -0.000290      0.000566
     -2.50837      5.79395      8.96771        -0.001549      0.001328      0.001961
     -2.50965      2.88765     11.01327        -0.000592      0.000394     -0.000976
     -2.50317      0.00200     13.07494        -0.000804      0.000098      0.000054
      4.97261      4.34456      6.90350         0.003084     -0.000786      0.000664
      5.01346      1.44177      8.95975        -0.001035     -0.000607     -0.000082
      5.00141     -1.42240     11.01299        -0.001208      0.000879     -0.001063
      2.50744      5.79317      8.96688        -0.001919     -0.002091     -0.001650
      2.51022      2.88858     11.01476         0.000306      0.001445      0.001160
      2.50383      0.00097     13.07372         0.000344     -0.002187     -0.001002
      0.01495      7.14824     11.06171         0.003480     -0.000465     -0.000504
      0.00066      4.33701     13.06275        -0.002225      0.000960     -0.000963
     -0.00454      1.44597     15.14859        -0.000953      0.001971      0.000248
      0.00513      5.78575     13.56906         0.001803      0.000739     -0.002356
     -0.00110      2.89914     15.63403         0.002148     -0.001313     -0.001360
      5.00969     -2.88964     13.56876         0.000510     -0.000134      0.000958
      5.01270      2.89403      9.46220         0.000051      0.000910     -0.001743
      5.00750      0.01493     11.52358        -0.000286     -0.002867     -0.000118
      2.51069     -1.45032     15.63427        -0.002412      0.002899      0.000888
      2.51750      4.32950     11.52528         0.000560     -0.001472      0.002211
      2.50693      1.44761     13.58441         0.000816      0.000377     -0.001885
     -5.01120     -2.89618     13.57006        -0.000959     -0.002458      0.001810
     -5.01829      2.89681      9.45803        -0.001802      0.000116      0.000305
     -5.00954      0.01705     11.52505        -0.001165     -0.000838      0.000142
     -0.00029     -5.79156      9.45957        -0.001510     -0.000673     -0.000639
      0.00074     -0.00007      5.35858         0.000230      0.000676      0.001731
      0.00006     -2.88723      7.42234         0.000652     -0.000504     -0.000835
     -2.49020     -4.34639     11.52557         0.001069     -0.000463      0.001207
     -2.50169      1.44431      7.42255        -0.000752      0.000584     -0.002027
     -2.50465     -1.44557      9.47818        -0.002096     -0.000897      0.000381
     -2.51045     -1.44905     15.63312         0.001082      0.000267     -0.000316
     -2.51852      4.33009     11.52423         0.001154      0.001612     -0.001258
     -2.50812      1.44826     13.58777        -0.000621      0.000607      0.002923
      2.49089     -4.34482     11.52315         0.003221      0.001421     -0.002417
      2.49947      1.44299      7.42224         0.001932      0.000836     -0.000768
      2.50457     -1.44600      9.47820        -0.001646      0.000248     -0.000854
     -0.00006     -2.89561     13.58631         0.000454     -0.000334      0.000242
     -0.00044      2.89190      9.47823        -0.000565     -0.000409     -0.000295
     -0.00042     -0.00002     11.53665         0.000160     -0.000390      0.001462
      1.25486     -0.72310      2.75524         0.001032     -0.000140      0.001961
      1.25618     -3.61510      4.86079        -0.002299     -0.000957     -0.001299
      1.27181     -6.47927      6.90985        -0.005423     -0.003391      0.001899
     -1.24969      0.72175      4.84184        -0.000526      0.001004      0.001395
     -1.25286     -2.16658      6.90656         0.001049      0.000347      0.000157
     -1.25579     -5.06251      8.95874        -0.000157     -0.001170     -0.001555
[...]
      0.00029     -4.34517     11.52264         0.002243      0.000213      0.000051
     -0.00057      1.44542      7.42081        -0.000620      0.000216     -0.000598
      0.00017     -1.44550      9.47790        -0.000341     -0.000652     -0.000194
     -2.50264     -2.89688     13.57875        -0.000643     -0.000559     -0.000179
     -2.50604      2.89243      9.47651        -0.000836      0.001002      0.000408
     -2.50297      0.00273     11.53345        -0.000772     -0.000323      0.001613
      4.97406     -4.33349     11.52428         0.005433      0.001017     -0.002410
      4.99784      1.42418      7.42890         0.002222      0.001043     -0.001452
      5.01213     -1.44469      9.48119         0.000861     -0.000559      0.001577
      2.50270     -2.89553     13.57784         0.001245      0.001294      0.000242
      2.50354      2.89124      9.47782         0.000020     -0.000935     -0.000581
      2.50296      0.00153     11.53243        -0.000392     -0.001461     -0.000264
     -0.00226     -1.44415     15.67920         0.000478     -0.000333      0.000328
      0.00068      4.33150     11.52670         0.001245      0.001409      0.000803
     -0.00065      1.44347     13.59895        -0.000453      0.001557      0.000369
    total drift:                                0.020136     -0.044900     -0.012107

  FREE ENERGIE OF THE ION-ELECTRON SYSTEM (eV)
  free  energy   TOTEN  =     -2409.40333235 eV

  energy  without entropy=    -2409.40333235  energy(sigma->0) =    -2409.40333235

 d Force = 0.3931486E-04[-0.123E-05, 0.799E-04]  d Energy =-0.4146194E-04 0.808E-04
 d Force = 0.2586810E-01[ 0.258E-01, 0.259E-01]  d Ewald  = 0.2586825E-01-0.147E-06

 reached required accuracy - stopping structural energy minimisation
 writing wavefunctions

 total charge

[...]

 magnetization (x)

# of ion       s       p       d       tot
    1       -0.016   0.056   0.000   0.040
    2       -0.001   0.000   0.000  -0.001
    3       -0.000   0.000   0.000  -0.000
    4       -0.000   0.000   0.000  -0.000
    5       -0.000   0.001   0.000   0.000
    6        0.000   0.001   0.000   0.001
    7        0.000   0.006   0.000   0.006
    8        0.001   0.015   0.000   0.016
    9       -0.000  -0.000   0.000  -0.000
   10        0.002   0.020   0.000   0.022
   11       -0.000   0.001   0.000   0.001
   12       -0.000   0.001   0.000   0.001
   13        0.000   0.002   0.000   0.002
   14        0.000   0.003   0.000   0.003
   15        0.000   0.001   0.000   0.001
   16        0.000   0.001   0.000   0.001
   17        0.000   0.001   0.000   0.001
   18        0.000   0.003   0.000   0.003
   19        0.000   0.002   0.000   0.002
   20        0.000   0.011   0.000   0.011
   21       -0.000   0.002   0.000   0.002
   22        0.000   0.002   0.000   0.002
   23        0.000   0.002   0.000   0.002
   24        0.000   0.002   0.000   0.002
   25       -0.000   0.000   0.000   0.000
   26        0.012   0.110   0.000   0.123
   27        0.000   0.002   0.000   0.002
   28        0.000   0.006   0.000   0.007
   29        0.000   0.003   0.000   0.003
   30       -0.000   0.001   0.000   0.000
   31        0.000   0.004   0.000   0.004
   32        0.002   0.022   0.000   0.024
   33       -0.000   0.000   0.000   0.000
   34       -0.000   0.000   0.000   0.000
   35        0.000   0.001   0.000   0.001
   36        0.000   0.001   0.000   0.002
   37        0.000   0.002   0.000   0.002
   38        0.001   0.004   0.000   0.005
   39        0.000   0.007   0.000   0.007
   40        0.001   0.011   0.000   0.012
   41       -0.000   0.001   0.000   0.001
   42        0.000   0.002   0.000   0.002
   43        0.000   0.005   0.000   0.006
   44        0.000   0.000   0.000   0.001
   45       -0.000   0.001   0.000   0.001
   46       -0.000   0.001   0.000   0.001
   47        0.000   0.007   0.000   0.007
   48        0.000   0.000   0.000   0.000
   49        0.000   0.005   0.000   0.005
   50        0.000   0.002   0.000   0.002
   51        0.000   0.001   0.000   0.001
   52        0.000   0.001   0.000   0.001
   53        0.000   0.001   0.000   0.001
   54        0.000   0.002   0.000   0.002
   55       -0.001  -0.000   0.000  -0.001
   56       -0.000   0.001   0.000   0.000
   57        0.000   0.020   0.000   0.020
   58       -0.000   0.000   0.000  -0.000
   59        0.000   0.001   0.000   0.001
   60       -0.000   0.000   0.000  -0.000
[...]
  201        0.000   0.003   0.000   0.003
  202        0.000   0.001   0.000   0.001
  203        0.000   0.001   0.000   0.001
  204       -0.000   0.001   0.000   0.001
  205        0.000   0.002   0.000   0.002
  206       -0.000   0.001   0.000   0.001
  207        0.001   0.015   0.000   0.016
  208        0.002   0.020   0.000   0.022
  209       -0.000  -0.000   0.000  -0.000
  210       -0.000   0.001   0.000   0.000
  211        0.000   0.006   0.000   0.006
  212        0.000   0.001   0.000   0.001
  213       -0.001   0.000   0.000  -0.001
  214       -0.000   0.000   0.000  -0.000
  215       -0.000   0.000   0.000  -0.000
tot          0.069   1.337   0.000   1.406