 vasp.5.4.4.18Apr17-6-g9f103f2a35 (build Dec 19 2024 10:44:08) gamma-only
 executed on NVIDIA22.7_CrayMPICH date 2025.02.14  12:27:49

 INCAR:
 POTCAR:   PAW_PBE Si 05Jan2001
 POTCAR:   PAW_PBE C 08Apr2002
 POTCAR:   PAW_PBE Si 05Jan2001
   VRHFIN =Si: s2p2

   TITEL  = PAW_PBE Si 05Jan2001
   POMASS =   28.085; ZVAL   =    4.000    mass and valenz
   ENMAX  =  245.345; ENMIN  =  184.009 eV
   QCUT   =   -4.246; QGAM   =    8.493    optimization parameters

   Description
     l     E      TYP  RCUT    TYP  RCUT
     0   .000     23  1.900
     0   .000     23  1.900
     1   .000     23  1.900
     1   .000     23  1.900
     2   .000      7  1.900

 POTCAR:   PAW_PBE C 08Apr2002
   VRHFIN =C: s2p2

   TITEL  = PAW_PBE C 08Apr2002
   POMASS =   12.011; ZVAL   =    4.000    mass and valenz
   ENMAX  =  400.000; ENMIN  =  300.000 eV
   QCUT   =   -5.516; QGAM   =   11.032    optimization parameters

   Description
     l     E      TYP  RCUT    TYP  RCUT
     0   .000     23  1.200
     0   .000     23  1.200
     1   .000     23  1.500
     1  2.500     23  1.500
     2   .000      7  1.500

 Optimization of the real space projectors (new method)

 maximal supplied QI-value         = 19.84
 optimisation between [QCUT,QGAM] = [ 10.12, 20.44] = [ 28.68,116.96] Ry
 Optimized for a Real-space Cutoff    1.38 Angstroem

   l    n(q)    QCUT    max X(q) W(low)/X(q) W(high)/X(q)  e(spline)
   0      8    10.119     8.708    0.16E-04    0.67E-05    0.60E-08
   0      8    10.119   106.241    0.56E-04    0.11E-03    0.54E-07
   1      8    10.119     5.901    0.16E-04    0.16E-05    0.22E-07
   1      8    10.119    73.241    0.22E-03    0.17E-03    0.18E-06
 Optimization of the real space projectors (new method)

 maximal supplied QI-value         = 25.13
 optimisation between [QCUT,QGAM] = [ 10.05, 20.36] = [ 28.30,116.06] Ry
 Optimized for a Real-space Cutoff    1.38 Angstroem

   l    n(q)    QCUT    max X(q) W(low)/X(q) W(high)/X(q)  e(spline)
   0      8    10.053     5.582    0.33E-04    0.15E-04    0.75E-07
   0      8    10.053    69.432    0.23E-03    0.38E-03    0.25E-06
   1      8    10.053     2.780    0.76E-04    0.11E-03    0.15E-06
   1      8    10.053     4.549    0.19E-03    0.19E-03    0.27E-06
 PAW_PBE Si 05Jan2001                   :
 PAW_PBE C 08Apr2002                    :

 POSCAR: generated by phonopy
  positions in direct lattice
  velocities in cartesian coordinates
 exchange correlation table for  LEXCH =        8
   RHO(1)=    0.500       N(1)  =     2000
   RHO(2)=  100.500       N(2)  =     4000

 ion  position               nearest neighbor table
   1  0.000  0.000  0.000-  26 1.98 189 1.98 136 1.98  75 1.98  82 1.98 117 1.98
   2  0.205  0.205  0.039- 189 1.54 139 1.54  91 1.54  40 1.56
   3  0.207  0.207  0.373-  41 1.53  92 1.54 140 1.54 190 1.55
   4  0.209  0.209  0.707-  42 1.53 191 1.54 141 1.54  93 1.54
   5  0.209  0.541  0.042-  94 1.53 192 1.54 142 1.54  43 1.54
   6  0.208  0.541  0.375-  95 1.53  44 1.53 143 1.54 193 1.54
   7  0.209  0.542  0.708-  45 1.54  96 1.54 144 1.54 194 1.54
   8  0.211  0.871  0.042- 136 1.51 195 1.52  97 1.53  37 1.55
   9  0.208  0.874  0.375- 196 1.53  38 1.54  98 1.54 137 1.54
  10  0.211  0.875  0.706- 138 1.53  39 1.53 197 1.53  99 1.54
  11  0.541  0.209  0.042- 148 1.53 198 1.54 100 1.54  49 1.54
  12  0.541  0.208  0.375- 149 1.53  50 1.53 101 1.54 199 1.54
  13  0.542  0.209  0.708-  51 1.54 150 1.54 102 1.54 200 1.54
  14  0.542  0.542  0.042- 103 1.53 151 1.53 201 1.54  52 1.54
  15  0.541  0.541  0.375- 104 1.54 152 1.54  53 1.54 202 1.54
  16  0.542  0.542  0.708- 153 1.53 105 1.53  54 1.54 203 1.54
  17  0.542  0.875  0.042- 145 1.53 204 1.54 106 1.54  46 1.54
  18  0.541  0.875  0.376-  47 1.53 146 1.53 205 1.54 107 1.54
  19  0.543  0.875  0.709- 147 1.53  48 1.53 108 1.54 206 1.54
  20  0.871  0.211  0.042-  82 1.51 207 1.52 157 1.53  31 1.55
  21  0.874  0.208  0.375- 208 1.53  32 1.54 158 1.54  83 1.54
  22  0.875  0.211  0.706-  84 1.53  33 1.53 209 1.53 159 1.54
  23  0.875  0.542  0.042-  85 1.53 210 1.54 160 1.54  34 1.54
  24  0.875  0.541  0.376-  35 1.53  86 1.53 211 1.54 161 1.54
  25  0.875  0.543  0.709-  87 1.53  36 1.53 162 1.54 212 1.54
  26  0.874  0.874  0.052-  88 1.51 154 1.51 213 1.54   1 1.98
  27  0.875  0.875  0.376-  29 1.53 214 1.54 155 1.54  89 1.54
  28  0.877  0.877  0.711-  30 1.53  90 1.54 156 1.54 215 1.55
  29  0.958  0.958  0.292- 163 1.53  27 1.53 115 1.55  73 1.55
  30  0.959  0.959  0.625- 164 1.53  28 1.53 116 1.54  74 1.54
  31  0.958  0.292  0.958- 165 1.53  78 1.53  20 1.55 111 1.55
  32  0.957  0.291  0.291-  21 1.54  76 1.54 166 1.54 109 1.56
  33  0.958  0.293  0.624-  22 1.53  77 1.53 167 1.54 110 1.54
  34  0.959  0.625  0.959- 168 1.53  81 1.53  23 1.54 114 1.54
  35  0.958  0.624  0.293-  79 1.53  24 1.53 169 1.54 112 1.54
  36  0.959  0.626  0.626-  25 1.53  80 1.53 170 1.54 113 1.54
  37  0.292  0.958  0.958- 171 1.53 126 1.53   8 1.55  57 1.55
  38  0.291  0.957  0.291-   9 1.54 124 1.54 172 1.54  55 1.56
  39  0.293  0.958  0.624-  10 1.53 125 1.53 173 1.54  56 1.54
  40  0.291  0.291  0.957-  60 1.54 120 1.54 174 1.54   2 1.56
  41  0.291  0.291  0.291-   3 1.53  58 1.53 118 1.53 175 1.54
  42  0.292  0.292  0.624-   4 1.53  59 1.53 119 1.53 176 1.54
  43  0.293  0.624  0.958-  63 1.53 123 1.53 177 1.54   5 1.54
  44  0.292  0.624  0.292-  61 1.53   6 1.53 121 1.53 178 1.54
  45  0.292  0.625  0.625-   7 1.54  62 1.54 122 1.54 179 1.54
  46  0.625  0.959  0.959- 180 1.53 135 1.53  17 1.54  66 1.54
  47  0.624  0.958  0.293- 133 1.53  18 1.53 181 1.54  64 1.54
  48  0.626  0.959  0.626-  19 1.53 134 1.53 182 1.54  65 1.54
  49  0.624  0.293  0.958- 129 1.53  69 1.53 183 1.54  11 1.54
  50  0.624  0.292  0.292- 127 1.53  12 1.53  67 1.53 184 1.54
  51  0.625  0.292  0.625-  13 1.54 128 1.54  68 1.54 185 1.54
  52  0.626  0.626  0.959-  72 1.53 132 1.53 186 1.54  14 1.54
  53  0.625  0.625  0.292-  70 1.54 130 1.54  15 1.54 187 1.54
  54  0.626  0.626  0.626-  16 1.54 131 1.54  71 1.54 188 1.54
  55  0.205  0.039  0.205- 136 1.54  91 1.54 190 1.54  38 1.56
  56  0.209  0.042  0.541-  92 1.53 137 1.54 191 1.54  39 1.54
  57  0.211  0.042  0.871- 189 1.51 138 1.52  93 1.53  37 1.55
  58  0.207  0.373  0.207-  41 1.53  94 1.54 193 1.54 139 1.55
  59  0.208  0.375  0.541-  95 1.53  42 1.53 194 1.54 140 1.54
  60  0.208  0.375  0.874- 141 1.53  40 1.54  96 1.54 192 1.54
[...]
 201  0.458  0.458  0.958-  69 1.53 123 1.53  14 1.54 174 1.54
 202  0.458  0.458  0.292-  67 1.53 121 1.53 175 1.54  15 1.54
 203  0.459  0.459  0.625-  68 1.54 122 1.54 176 1.54  16 1.54
 204  0.459  0.791  0.958-  72 1.53  17 1.54 126 1.54 177 1.54
 205  0.458  0.791  0.292- 178 1.54  70 1.54 124 1.54  18 1.54
 206  0.459  0.792  0.625-  71 1.53 179 1.53 125 1.54  19 1.54
 207  0.789  0.129  0.958-  75 1.51  20 1.52 129 1.53 180 1.55
 208  0.789  0.125  0.294-  73 1.53 181 1.53  21 1.53 127 1.54
 209  0.792  0.126  0.625-  22 1.53 182 1.54 128 1.54  74 1.54
 210  0.791  0.459  0.958- 132 1.53  23 1.54  78 1.54 183 1.54
 211  0.791  0.458  0.292- 184 1.54 130 1.54  76 1.54  24 1.54
 212  0.792  0.459  0.625- 131 1.53 185 1.53  77 1.54  25 1.54
 213  0.795  0.795  0.961-  26 1.54  81 1.54 135 1.54 186 1.56
 214  0.791  0.791  0.293- 187 1.53  27 1.54 133 1.54  79 1.54
 215  0.793  0.793  0.627- 188 1.53 134 1.54  80 1.54  28 1.55

IMPORTANT INFORMATION: All symmetrisations will be switched off!
NOSYMM: (Re-)initialisation of all symmetry stuff for point group C_1.

 KPOINTS: pymatgen v1.1 with grid density = 2210 /

Automatic generation of k-mesh.
Space group operators:
 irot       det(A)        alpha          n_x          n_y          n_z        tau_x        tau_y        tau_z
    1     1.000000     0.000000     1.000000     0.000000     0.000000     0.000000     0.000000     0.000000

 Subroutine IBZKPT returns following result:

 Found      1 irreducible k-points:

 Following reciprocal coordinates:
            Coordinates               Weight
  0.000000  0.000000  0.000000      1.000000

 Following cartesian coordinates:
            Coordinates               Weight
  0.000000  0.000000  0.000000      1.000000

 Subroutine IBZKPT_HF returns following result:

 Found      1 k-points in 1st BZ
 the following      1 k-points will be used (e.g. in the exchange kernel)
 Following reciprocal coordinates:   # in IRBZ
  0.000000  0.000000  0.000000    1.00000000   1 t-inv F

 SYSTEM =  unknown system
 POSCAR =  generated by phonopy

 Startparameter for this run:
   NWRITE =      2    write-flag & timer
   PREC   = accura    normal or accurate (medium, high low for compatibility)
   ISTART =      1    job   : 0-new  1-cont  2-samecut
   ICHARG =      2    charge: 1-file 2-atom 10-const
   ISPIN  =      2    spin polarized calculation?
   LNONCOLLINEAR =      F non collinear calculations
   LSORBIT =      F    spin-orbit coupling
   INIWAV =      1    electr: 0-lowe 1-rand  2-diag
   LASPH  =      F    aspherical Exc in radial PAW
   METAGGA=      F    non-selfconsistent MetaGGA calc.

 Electronic Relaxation 1
   ENCUT  =  400.0 eV  29.40 Ry    5.42 a.u.  17.36 17.36 17.36*2*pi/ulx,y,z
   ENINI  =  400.0     initial cutoff
   ENAUG  =  644.9 eV  augmentation charge cutoff
   NELM   =    100;   NELMIN=  2; NELMDL=  0     # of ELM steps
   EDIFF  = 0.1E-04   stopping-criterion for ELM
   LREAL  =      T    real-space projection
   NLSPLINE    = F    spline interpolate recip. space projectors
   LCOMPAT=      F    compatible to vasp.4.4
   GGA_COMPAT  = T    GGA compatible to vasp.4.4-vasp.4.6
   LMAXPAW     = -100 max onsite density
   LMAXMIX     =    2 max onsite mixed and CHGCAR
   VOSKOWN=      0    Vosko Wilk Nusair interpolation
   ROPT   =   -0.00025  -0.00025
 Ionic relaxation
   EDIFFG = -.1E-01   stopping-criterion for IOM
   NSW    =     99    number of steps for IOM
   NBLOCK =      1;   KBLOCK =     99    inner block; outer block
   IBRION =      2    ionic relax: 0-MD 1-quasi-New 2-CG
   NFREE  =      1    steps in history (QN), initial steepest desc. (CG)
   ISIF   =      2    stress and relaxation
   IWAVPR =     11    prediction:  0-non 1-charg 2-wave 3-comb
   ISYM   =      0    0-nonsym 1-usesym 2-fastsym
   LCORR  =      T    Harris-Foulkes like correction to forces

   POTIM  = 0.5000    time-step for ionic-motion
   TEIN   =    0.0    initial temperature
   TEBEG  =    0.0;   TEEND  =   0.0 temperature during run
   SMASS  =  -3.00    Nose mass-parameter (am)
   estimated Nose-frequenzy (Omega)   =  0.10E-29 period in steps =****** mass=  -0.259E-26a.u.
   SCALEE = 1.0000    scale energy and forces
   NPACO  =    256;   APACO  = 16.0  distance and # of slots for P.C.
   PSTRESS=    0.0 pullay stress

  Mass of Ions in am
   POMASS =  28.09 12.01
  Ionic Valenz
   ZVAL   =   4.00  4.00
  Atomic Wigner-Seitz radii
  virtual crystal weights
   VCA    =   1.00  1.00
   NELECT =     860.0000    total number of electrons
   NUPDOWN=       2.0000    fix difference up-down

 DOS related values:
   EMIN   =  10.00;   EMAX   =-10.00  energy-range for DOS
   EFERMI =   0.00
   ISMEAR =    -2;   SIGMA  =   0.05  broadening in eV -4-tet -1-fermi 0-gaus

 Electronic relaxation 2 (details)
[...]
   0.612E+01 0.835E+01 -.599E+00   -.624E+01 -.834E+01 0.649E+00   0.105E+00 -.172E-01 -.443E-01
   -.344E+01 0.113E+01 0.201E+01   0.350E+01 -.115E+01 -.203E+01   -.472E-01 0.116E-01 0.202E-01
   -.115E+01 -.100E+01 0.356E+01   0.115E+01 0.100E+01 -.363E+01   -.413E-03 -.596E-02 0.786E-01
   -.242E+01 0.233E+01 -.443E+00   0.245E+01 -.238E+01 0.417E+00   -.258E-01 0.447E-01 0.205E-01
   -.408E+00 -.357E+01 0.427E-01   0.365E+00 0.361E+01 -.204E-01   0.340E-01 -.356E-01 -.232E-01
   -.825E-02 -.895E+00 0.130E+01   0.585E-02 0.905E+00 -.134E+01   0.179E-02 -.590E-02 0.378E-01
   -.673E-01 -.368E+00 -.148E+01   0.648E-01 0.369E+00 0.149E+01   -.205E-02 -.747E-02 -.194E-01
   -.112E+01 -.550E+01 -.253E+01   0.112E+01 0.558E+01 0.256E+01   0.250E-02 -.764E-01 -.353E-01
   -.829E+00 -.588E+00 0.612E+00   0.798E+00 0.619E+00 -.601E+00   0.270E-01 -.245E-01 -.177E-01
   -.351E+01 0.151E+01 -.461E+01   0.354E+01 -.154E+01 0.468E+01   -.372E-01 0.326E-01 -.791E-01
   -.319E+02 -.671E+01 0.116E+01   0.317E+02 0.667E+01 -.132E+01   0.158E+00 0.345E-01 0.158E+00
   -.725E+01 -.562E+01 0.129E+01   0.731E+01 0.569E+01 -.130E+01   -.502E-01 -.631E-01 0.180E-01
   -.612E+01 0.749E+01 -.249E+01   0.628E+01 -.752E+01 0.256E+01   -.144E+00 0.208E-01 -.729E-01
   0.582E+00 -.580E+01 -.289E+01   -.585E+00 0.586E+01 0.292E+01   0.380E-02 -.588E-01 -.323E-01
   -.198E-01 -.147E+01 0.190E+00   0.442E-02 0.145E+01 -.176E+00   0.195E-01 0.222E-01 -.129E-01
   0.259E+01 0.157E+01 -.514E+01   -.264E+01 -.160E+01 0.518E+01   0.494E-01 0.299E-01 -.383E-01
   -.148E+01 -.727E+02 -.228E+02   0.118E+01 0.781E+02 0.244E+02   0.294E+00 -.507E+01 -.153E+01
   -.558E+00 -.711E+01 -.186E+01   0.554E+00 0.716E+01 0.187E+01   0.882E-03 -.406E-01 -.824E-02
   -.819E+00 0.131E+02 -.177E+02   0.755E+00 -.133E+02 0.179E+02   0.601E-01 0.222E+00 -.239E+00
   0.140E-01 -.253E+02 0.601E+01   -.436E-02 0.257E+02 -.606E+01   -.110E-01 -.324E+00 0.508E-01
   -.242E+00 0.101E+02 -.571E+01   0.245E+00 -.102E+02 0.571E+01   -.646E-02 0.837E-01 -.264E-02
   -.217E+02 0.126E+02 0.579E+01   0.220E+02 -.127E+02 -.582E+01   -.277E+00 0.143E+00 0.313E-01
   -.119E+02 -.714E+01 0.597E+01   0.122E+02 0.730E+01 -.606E+01   -.283E+00 -.152E+00 0.979E-01
   -.500E+01 0.273E+01 -.117E+01   0.501E+01 -.273E+01 0.111E+01   -.717E-02 -.894E-04 0.532E-01
   0.847E+01 -.510E+01 -.572E+01   -.855E+01 0.515E+01 0.570E+01   0.728E-01 -.476E-01 0.125E-01
   -.177E+00 -.590E+01 -.749E+00   0.183E+00 0.590E+01 0.711E+00   -.658E-02 0.628E-02 0.322E-01
   0.297E+01 0.193E+01 -.626E+01   -.298E+01 -.193E+01 0.633E+01   0.174E-01 0.133E-02 -.709E-01
   0.226E+02 0.131E+02 0.652E+01   -.229E+02 -.133E+02 -.662E+01   0.327E+00 0.184E+00 0.992E-01
   0.118E+02 -.626E+01 0.653E+01   -.122E+02 0.650E+01 -.664E+01   0.302E+00 -.219E+00 0.120E+00
   0.543E+01 0.278E+01 -.322E-01   -.542E+01 -.279E+01 0.678E-01   -.170E-01 0.512E-02 -.350E-01
   0.728E+00 0.135E+02 0.636E+01   -.678E+00 -.139E+02 -.647E+01   -.476E-01 0.370E+00 0.119E+00
   0.688E+00 0.166E+00 0.839E+01   -.670E+00 -.159E+00 -.845E+01   -.184E-01 -.693E-02 0.696E-01
   0.616E+00 0.206E+01 0.150E+01   -.607E+00 -.208E+01 -.153E+01   -.112E-01 0.110E-01 0.237E-01
   0.521E+01 0.333E+01 0.108E+00   -.520E+01 -.332E+01 -.720E-01   -.166E-01 -.146E-01 -.377E-01
   0.194E+01 -.620E+00 0.177E+01   -.196E+01 0.640E+00 -.179E+01   0.936E-02 -.160E-01 0.208E-01
   0.259E+01 0.169E+01 -.106E+01   -.261E+01 -.169E+01 0.110E+01   0.754E-02 -.456E-02 -.394E-01
   -.919E+01 -.524E+01 -.576E+01   0.926E+01 0.528E+01 0.580E+01   -.655E-01 -.364E-01 -.541E-01
   0.312E+00 -.556E+01 -.116E+01   -.275E+00 0.561E+01 0.111E+01   -.262E-01 -.394E-01 0.473E-01
   -.385E+01 0.167E+01 -.588E+01   0.384E+01 -.170E+01 0.594E+01   0.936E-02 0.283E-01 -.579E-01
   -.459E+01 0.293E+01 -.143E+01   0.465E+01 -.293E+01 0.137E+01   -.470E-01 0.406E-02 0.656E-01
   -.196E+01 -.134E+01 0.891E+00   0.195E+01 0.134E+01 -.915E+00   0.124E-01 0.995E-02 0.317E-01
   -.248E+01 0.933E+00 -.192E+01   0.250E+01 -.975E+00 0.197E+01   -.108E-01 0.394E-01 -.427E-01
   -.671E+00 -.400E+01 -.598E+01   0.636E+00 0.400E+01 0.604E+01   0.364E-01 -.860E-02 -.644E-01
   -.597E+00 -.276E+01 -.167E+01   0.561E+00 0.279E+01 0.171E+01   0.364E-01 -.241E-01 -.427E-01
   -.414E+00 -.101E+00 -.614E+01   0.414E+00 0.101E+00 0.623E+01   0.321E-02 0.634E-03 -.988E-01
   0.195E+02 -.105E+02 0.230E+02   -.198E+02 0.107E+02 -.236E+02   0.334E+00 -.207E+00 0.561E+00
   0.349E+01 0.271E+01 0.274E+01   -.351E+01 -.272E+01 -.276E+01   0.120E-01 0.127E-01 0.176E-01
   0.100E+02 0.307E+02 0.286E+01   -.103E+02 -.307E+02 -.276E+01   0.288E+00 -.595E-02 -.856E-01
   -.125E+01 0.131E+01 0.124E+02   0.130E+01 -.133E+01 -.126E+02   -.488E-01 0.189E-01 0.197E+00
   0.477E+00 0.181E+01 0.421E+01   -.458E+00 -.182E+01 -.425E+01   -.196E-01 0.449E-03 0.442E-01
   -.239E+00 0.878E+01 0.189E+01   0.297E+00 -.889E+01 -.191E+01   -.611E-01 0.101E+00 0.258E-01
[...]
   0.656E-01 0.368E+00 0.148E+01   -.630E-01 -.368E+00 -.149E+01   0.207E-02 0.749E-02 0.194E-01
   0.650E-02 0.895E+00 -.130E+01   -.406E-02 -.904E+00 0.134E+01   -.177E-02 0.590E-02 -.378E-01
   0.344E+01 -.114E+01 -.201E+01   -.350E+01 0.115E+01 0.203E+01   0.472E-01 -.116E-01 -.201E-01
   0.242E+01 -.233E+01 0.442E+00   -.244E+01 0.238E+01 -.415E+00   0.258E-01 -.447E-01 -.205E-01
   0.115E+01 0.100E+01 -.356E+01   -.115E+01 -.100E+01 0.363E+01   0.417E-03 0.599E-02 -.786E-01
   -.315E+02 0.656E+01 -.344E+01   0.317E+02 -.628E+01 0.326E+01   -.135E+00 -.263E+00 0.165E+00
   -.612E+01 -.835E+01 0.599E+00   0.624E+01 0.834E+01 -.649E+00   -.105E+00 0.172E-01 0.443E-01
   -.726E+01 0.473E+01 -.205E+01   0.733E+01 -.483E+01 0.208E+01   -.634E-01 0.100E+00 -.372E-01
   -.408E+01 -.163E+01 -.284E+01   0.410E+01 0.165E+01 0.286E+01   -.117E-01 -.840E-02 -.208E-01
   -.333E+01 -.297E+01 -.141E+00   0.335E+01 0.299E+01 0.163E+00   -.153E-01 -.938E-02 -.215E-01
   -.177E+01 0.637E+00 -.439E+01   0.177E+01 -.655E+00 0.442E+01   0.719E-02 0.142E-01 -.370E-01
   -.101E+01 -.219E+02 -.234E+02   0.100E+01 0.223E+02 0.240E+02   0.125E-01 -.394E+00 -.534E+00
   -.869E+00 -.102E+02 -.271E+01   0.781E+00 0.103E+02 0.267E+01   0.832E-01 -.139E+00 0.278E-01
   -.713E+00 0.207E+01 -.122E+02   0.704E+00 -.211E+01 0.124E+02   0.103E-01 0.475E-01 -.193E+00
   -.177E-04 -.477E-05 0.465E-04   0.706E-13 -.416E-12 -.803E-12   0.624E-04 0.157E-04 -.178E-04

 POSITION                                       TOTAL-FORCE (eV/Angst)
      0.00000     -0.00000      0.00000        -0.000032      0.000002      0.000040
      0.00189      1.44419      2.76629        -0.000889     -0.000165     -0.000210
      0.00005     -1.44394      4.84226        -0.001642     -0.002074     -0.002202
      0.00181     -4.33082      6.91338         0.001932      0.000998      0.003955
     -2.50332      2.89683      4.86139        -0.001438     -0.005054      0.001799
     -2.50245     -0.00210      6.90698        -0.002279      0.002310      0.003539
     -2.50469     -2.89209      8.96302        -0.005120     -0.000082      0.000850
     -4.96690      4.33951      6.91569        -0.004816     -0.000992      0.004651
     -5.01281      1.44456      8.96023        -0.002859     -0.004543      0.004890
     -4.99895     -1.42366     11.01191        -0.000494      0.001051      0.003166
      2.50163      2.89610      4.86164        -0.000923     -0.000653     -0.001542
      2.50375     -0.00177      6.90654        -0.002453     -0.002881      0.005631
      2.50503     -2.89111      8.96190        -0.001167     -0.001458     -0.005161
      0.00139      4.34510      6.91643        -0.005746      0.001202     -0.000799
      0.00045      1.44541      8.96147        -0.000133      0.001628     -0.000940
     -0.00030     -1.44531     11.01903        -0.004839     -0.005396     -0.005823
     -2.50786      5.79319      8.96656        -0.001194     -0.003822     -0.002564
     -2.51084      2.88716     11.01432        -0.003273      0.000437     -0.005408
     -2.50382      0.00186     13.07364        -0.001298     -0.002801     -0.008719
      4.97455      4.33994      6.90383        -0.002190     -0.004558      0.001203
      5.01198      1.44335      8.95940         0.005014     -0.001005      0.004527
      4.99865     -1.42611     11.01073         0.000172      0.000455     -0.001243
      2.50798      5.79346      8.96715         0.001086     -0.000232      0.000702
      2.50903      2.88869     11.01341         0.005410      0.000911      0.000563
      2.50404      0.00162     13.07361        -0.000011     -0.001681      0.004725
     -0.00958      7.14481     11.05129        -0.002981     -0.000565     -0.000121
      0.00061      4.33687     13.06227        -0.003598      0.001041      0.001434
     -0.00111      1.44583     15.14546        -0.000817     -0.003030     -0.001710
      0.00072      5.78612     13.57081        -0.001464     -0.002585      0.001699
      0.00088      2.89914     15.63241        -0.002595     -0.003071     -0.001808
      5.01299     -2.89346     13.57017        -0.003464      0.001265      0.000758
      5.01608      2.89565      9.45896        -0.001115     -0.001305      0.004651
      5.00880      0.01465     11.52369        -0.002411      0.002015     -0.002349
      2.51044     -1.44860     15.63295        -0.003502     -0.000591     -0.000581
      2.51658      4.33130     11.52414         0.001505     -0.002607     -0.004307
      2.50761      1.44781     13.58619         0.003203      0.000585     -0.003163
     -5.00725     -2.89095     13.57177        -0.001866     -0.000764      0.005960
     -5.01331      2.89521      9.46440        -0.007335      0.005061      0.000978
     -5.00909      0.01579     11.52530         0.001115      0.000851     -0.001299
      0.00101     -5.78997      9.46295         0.001304     -0.006283      0.001535
      0.00012      0.00003      5.35930        -0.001470     -0.000261      0.007251
      0.00032     -2.88689      7.42252        -0.002777     -0.002936      0.000642
     -2.49235     -4.34576     11.52542         0.002399     -0.000677     -0.003103
     -2.49996      1.44364      7.42261        -0.004698      0.000079     -0.001479
     -2.50435     -1.44578      9.47850        -0.003108     -0.002463     -0.002718
     -2.51200     -1.45050     15.63135         0.004223      0.002717     -0.005234
     -2.51996      4.32707     11.52379         0.005019     -0.001207      0.002835
     -2.50878      1.44836     13.58406        -0.000564      0.003315      0.001584
      2.48787     -4.34573     11.52347         0.000255      0.004711      0.002995
      2.50052      1.44359      7.42210         0.000142      0.000825      0.006088
      2.50397     -1.44608      9.47770         0.001409      0.000501      0.001698
     -0.00011     -2.89651     13.58466         0.003580     -0.002110      0.000498
     -0.00046      2.89156      9.47785         0.001668      0.002265      0.000317
     -0.00036     -0.00014     11.53682         0.003354      0.001062     -0.008635
      1.25196     -0.72147      2.76799        -0.000646     -0.000341     -0.000667
      1.25714     -3.61574      4.86149        -0.004589      0.000485      0.002049
      1.27595     -6.46916      6.91357        -0.003551     -0.000054      0.004079
     -1.25028      0.72189      4.84169        -0.003685      0.000743     -0.002083
     -1.25297     -2.16644      6.90705        -0.000290     -0.002089      0.004842
     -1.25494     -5.06390      8.95962        -0.006590     -0.001806      0.005844
[...]
     -0.00139     -4.34510     11.52309         0.005813     -0.001217      0.000809
      0.00030      1.44531      7.42049         0.004901      0.005412      0.005820
     -0.00045     -1.44541      9.47805         0.000192     -0.001624      0.000961
     -2.50163     -2.89611     13.57788         0.000918      0.000657      0.001617
     -2.50504      2.89111      9.47761         0.001180      0.001460      0.005218
     -2.50375      0.00176     11.53298         0.002483      0.002948     -0.005603
      4.96690     -4.33951     11.52383         0.004761      0.000976     -0.004635
      4.99895      1.42366      7.42761         0.000433     -0.001041     -0.003154
      5.01282     -1.44456      9.47929         0.002851      0.004553     -0.004885
      2.50332     -2.89683     13.57813         0.001441      0.005068     -0.001820
      2.50469      2.89209      9.47650         0.005131      0.000037     -0.000887
      2.50246      0.00210     11.53254         0.002276     -0.002275     -0.003579
     -0.00188     -1.44419     15.67323         0.000864      0.000154      0.000222
     -0.00181      4.33082     11.52614        -0.001943     -0.001033     -0.003947
     -0.00005      1.44394     13.59725         0.001668      0.002086      0.002154
    total drift:                                0.000040      0.000008      0.000018

  FREE ENERGIE OF THE ION-ELECTRON SYSTEM (eV)
  free  energy   TOTEN  =     -2409.31761714 eV

  energy  without entropy=    -2409.31761714  energy(sigma->0) =    -2409.31761714

 d Force = 0.1765088E-05[-0.905E-06, 0.444E-05]  d Energy = 0.3664748E-05-0.190E-05
 d Force = 0.5057791E-02[ 0.505E-02, 0.507E-02]  d Ewald  = 0.5057791E-02 0.390E-09

 reached required accuracy - stopping structural energy minimisation
 writing wavefunctions

 total charge

[...]

 magnetization (x)

# of ion       s       p       d       tot
    1       -0.008   0.076   0.000   0.069
    2       -0.001   0.002   0.000   0.001
    3       -0.000   0.000   0.000   0.000
    4       -0.000  -0.000   0.000  -0.000
    5       -0.000   0.001   0.000   0.001
    6       -0.000   0.000   0.000   0.000
    7        0.000   0.002   0.000   0.002
    8       -0.000   0.008   0.000   0.007
    9       -0.000   0.001   0.000   0.001
   10        0.001   0.013   0.000   0.015
   11       -0.000   0.000   0.000   0.000
   12        0.000   0.001   0.000   0.001
   13        0.000   0.003   0.000   0.003
   14        0.000   0.003   0.000   0.003
   15        0.000   0.002   0.000   0.002
   16        0.000   0.001   0.000   0.001
   17        0.000   0.001   0.000   0.001
   18        0.000   0.002   0.000   0.002
   19       -0.000   0.000   0.000   0.000
   20        0.001   0.014   0.000   0.014
   21       -0.000   0.000   0.000  -0.000
   22        0.001   0.013   0.000   0.014
   23        0.000   0.002   0.000   0.002
   24        0.000   0.002   0.000   0.002
   25        0.000   0.002   0.000   0.002
   26        0.007   0.092   0.000   0.100
   27        0.000   0.003   0.000   0.003
   28        0.000   0.004   0.000   0.005
   29       -0.000   0.003   0.000   0.003
   30       -0.000   0.000   0.000   0.000
   31       -0.000   0.003   0.000   0.003
   32        0.001   0.011   0.000   0.012
   33        0.000   0.005   0.000   0.005
   34       -0.000   0.000   0.000   0.000
   35        0.000   0.005   0.000   0.006
   36        0.000   0.001   0.000   0.001
   37       -0.000   0.001   0.000   0.001
   38        0.001   0.013   0.000   0.014
   39        0.000   0.004   0.000   0.004
   40        0.001   0.012   0.000   0.013
   41        0.000   0.001   0.000   0.001
   42        0.000   0.001   0.000   0.001
   43        0.000   0.005   0.000   0.005
   44        0.000   0.001   0.000   0.001
   45        0.000   0.001   0.000   0.002
   46       -0.000   0.000   0.000   0.000
   47        0.000   0.002   0.000   0.002
   48        0.000   0.000   0.000   0.000
   49        0.000   0.003   0.000   0.003
   50        0.000   0.002   0.000   0.002
   51       -0.000   0.001   0.000   0.001
   52        0.000   0.000   0.000   0.000
   53       -0.000   0.001   0.000   0.001
   54        0.000   0.001   0.000   0.001
   55       -0.001   0.002   0.000   0.001
   56       -0.000   0.000   0.000   0.000
   57       -0.000   0.006   0.000   0.006
   58       -0.000   0.000   0.000   0.000
   59       -0.000   0.000   0.000   0.000
   60       -0.000   0.001   0.000   0.001
[...]
  201        0.000   0.003   0.000   0.003
  202        0.000   0.001   0.000   0.001
  203        0.000   0.002   0.000   0.002
  204       -0.000   0.000   0.000   0.000
  205        0.000   0.003   0.000   0.003
  206        0.000   0.001   0.000   0.001
  207       -0.000   0.008   0.000   0.007
  208        0.001   0.013   0.000   0.015
  209       -0.000   0.001   0.000   0.001
  210       -0.000   0.001   0.000   0.001
  211        0.000   0.002   0.000   0.002
  212       -0.000   0.000   0.000   0.000
  213       -0.001   0.002   0.000   0.001
  214       -0.000  -0.000   0.000  -0.000
  215       -0.000   0.000   0.000   0.000
tot          0.078   1.317   0.000   1.395