 vasp.6.4.3 19Mar24 (build Jun 20 2024 15:24:57) gamma-only
 executed on    LinuxNV_CrayMPICH date 2025.02.10  10:29:35
 OpenACC runtime initialized ...   16 GPUs detected

 INCAR:
   ALGO = N
   ISTART = 1
   EDIFF = 1e-6
   EDIFFG = -0.01
   ENCUT = 400
   IBRION = 2
   ICHARG = 2
   ISIF = 2
   ISMEAR = 0
   ISPIN = 2
   LORBIT = 11
   LREAL = Auto
   LWAVE = True
   MAGMOM = 215*0.6
   NUPDOWN = 2
   NELM = 100
   NSW = 0
   PREC = Accurate
   SIGMA = 0.05

 POTCAR:   PAW_PBE Si 05Jan2001
 POTCAR:   PAW_PBE C 08Apr2002
 POTCAR:   PAW_PBE Si 05Jan2001
   VRHFIN =Si: s2p2

   TITEL  = PAW_PBE Si 05Jan2001
   POMASS =   28.085; ZVAL   =    4.000    mass and valenz
   ENMAX  =  245.345; ENMIN  =  184.009 eV
   QCUT   =   -4.246; QGAM   =    8.493    optimization parameters

   Description
     l     E      TYP  RCUT    TYP  RCUT
     0   .000     23  1.900
     0   .000     23  1.900
     1   .000     23  1.900
     1   .000     23  1.900
     2   .000      7  1.900

 POTCAR:   PAW_PBE C 08Apr2002
   VRHFIN =C: s2p2

   TITEL  = PAW_PBE C 08Apr2002
   POMASS =   12.011; ZVAL   =    4.000    mass and valenz
   ENMAX  =  400.000; ENMIN  =  300.000 eV
   QCUT   =   -5.516; QGAM   =   11.032    optimization parameters

   Description
     l     E      TYP  RCUT    TYP  RCUT
     0   .000     23  1.200
     0   .000     23  1.200
     1   .000     23  1.500
     1  2.500     23  1.500
     2   .000      7  1.500

 Optimization of the real space projectors (new method)

 maximal supplied QI-value         = 19.84
 optimisation between [QCUT,QGAM] = [ 10.12, 20.44] = [ 28.68,116.96] Ry
 Optimized for a Real-space Cutoff    1.38 Angstroem

   l    n(q)    QCUT    max X(q) W(low)/X(q) W(high)/X(q)  e(spline)
   0      8    10.119     8.708    0.16E-04    0.67E-05    0.60E-08
   0      8    10.119   106.241    0.56E-04    0.11E-03    0.54E-07
   1      8    10.119     5.901    0.16E-04    0.16E-05    0.22E-07
   1      8    10.119    73.241    0.22E-03    0.17E-03    0.18E-06
 Optimization of the real space projectors (new method)

 maximal supplied QI-value         = 25.13
 optimisation between [QCUT,QGAM] = [ 10.05, 20.36] = [ 28.30,116.06] Ry
 Optimized for a Real-space Cutoff    1.38 Angstroem

   l    n(q)    QCUT    max X(q) W(low)/X(q) W(high)/X(q)  e(spline)
   0      8    10.053     5.582    0.33E-04    0.15E-04    0.75E-07
   0      8    10.053    69.432    0.23E-03    0.38E-03    0.25E-06
   1      8    10.053     2.780    0.76E-04    0.11E-03    0.15E-06
   1      8    10.053     4.549    0.19E-03    0.19E-03    0.27E-06
 PAW_PBE Si 05Jan2001                   :
 PAW_PBE C 08Apr2002                    :

 POSCAR: generated by phonopy
  positions in direct lattice
  velocities in cartesian coordinates

 exchange-correlation table for PE
   RHO(1)=    0.500       N(1)  =     2000
   RHO(2)=  100.500       N(2)  =     4000

 ion  position               nearest neighbor table
   1  0.000  0.000  0.000-  26 1.98 189 1.98 136 1.98  75 1.98  82 1.98 117 1.98
   2  0.205  0.205  0.039- 189 1.54 139 1.54  91 1.54  40 1.56
   3  0.207  0.207  0.373-  41 1.53  92 1.54 140 1.54 190 1.55
   4  0.209  0.209  0.707-  42 1.53 191 1.54 141 1.54  93 1.54
   5  0.209  0.541  0.042-  94 1.53 192 1.54 142 1.54  43 1.54
   6  0.208  0.541  0.375-  95 1.53  44 1.53 143 1.54 193 1.54
   7  0.209  0.542  0.708-  45 1.54  96 1.54 144 1.54 194 1.54
   8  0.211  0.871  0.042- 136 1.51 195 1.52  97 1.53  37 1.55
   9  0.208  0.874  0.375- 196 1.53  38 1.54  98 1.54 137 1.54
  10  0.211  0.875  0.706- 138 1.53  39 1.53 197 1.53  99 1.54
  11  0.541  0.209  0.042- 148 1.53 198 1.54 100 1.54  49 1.54
  12  0.541  0.208  0.375- 149 1.53  50 1.53 101 1.54 199 1.54
  13  0.542  0.209  0.708-  51 1.54 150 1.54 102 1.54 200 1.54
  14  0.542  0.542  0.042- 103 1.53 151 1.53 201 1.54  52 1.54
  15  0.541  0.541  0.375- 104 1.54 152 1.54  53 1.54 202 1.54
  16  0.542  0.542  0.708- 153 1.53 105 1.53  54 1.54 203 1.54
  17  0.542  0.875  0.042- 145 1.53 204 1.54 106 1.54  46 1.54
  18  0.541  0.875  0.376-  47 1.53 146 1.53 205 1.54 107 1.54
  19  0.543  0.875  0.709- 147 1.53  48 1.53 108 1.54 206 1.54
  20  0.871  0.211  0.042-  82 1.51 207 1.52 157 1.53  31 1.55
  21  0.874  0.208  0.375- 208 1.53  32 1.54 158 1.54  83 1.54
  22  0.875  0.211  0.706-  84 1.53  33 1.53 209 1.53 159 1.54
  23  0.875  0.542  0.042-  85 1.53 210 1.54 160 1.54  34 1.54
  24  0.875  0.541  0.376-  35 1.53  86 1.53 211 1.54 161 1.54
  25  0.875  0.543  0.709-  87 1.53  36 1.53 162 1.54 212 1.54
  26  0.874  0.874  0.052-  88 1.51 154 1.51 213 1.54   1 1.98
  27  0.875  0.875  0.376-  29 1.53 214 1.54 155 1.54  89 1.54
  28  0.877  0.877  0.711-  30 1.53  90 1.54 156 1.54 215 1.55
  29  0.958  0.958  0.292- 163 1.53  27 1.53 115 1.55  73 1.55
  30  0.959  0.959  0.625- 164 1.53  28 1.53 116 1.54  74 1.54
  31  0.958  0.292  0.958- 165 1.53  78 1.53  20 1.55 111 1.55
  32  0.957  0.291  0.291-  21 1.54  76 1.54 166 1.54 109 1.56
  33  0.958  0.293  0.624-  22 1.53  77 1.53 167 1.54 110 1.54
  34  0.959  0.625  0.959- 168 1.53  81 1.53  23 1.54 114 1.54
  35  0.958  0.624  0.293-  79 1.53  24 1.53 169 1.54 112 1.54
  36  0.959  0.626  0.626-  25 1.53  80 1.53 170 1.54 113 1.54
  37  0.292  0.958  0.958- 171 1.53 126 1.53   8 1.55  57 1.55
  38  0.291  0.957  0.291-   9 1.54 124 1.54 172 1.54  55 1.56
  39  0.293  0.958  0.624-  10 1.53 125 1.53 173 1.54  56 1.54
  40  0.291  0.291  0.957-  60 1.54 120 1.54 174 1.54   2 1.56
  41  0.291  0.291  0.291-   3 1.53  58 1.53 118 1.53 175 1.54
  42  0.292  0.292  0.624-   4 1.53  59 1.53 119 1.53 176 1.54
  43  0.293  0.624  0.958-  63 1.53 123 1.53 177 1.54   5 1.54
  44  0.292  0.624  0.292-  61 1.53   6 1.53 121 1.53 178 1.54
  45  0.292  0.625  0.625-   7 1.54  62 1.54 122 1.54 179 1.54
  46  0.625  0.959  0.959- 180 1.53 135 1.53  17 1.54  66 1.54
  47  0.624  0.958  0.293- 133 1.53  18 1.53 181 1.54  64 1.54
  48  0.626  0.959  0.626-  19 1.53 134 1.53 182 1.54  65 1.54
  49  0.624  0.293  0.958- 129 1.53  69 1.53 183 1.54  11 1.54
  50  0.624  0.292  0.292- 127 1.53  12 1.53  67 1.53 184 1.54
  51  0.625  0.292  0.625-  13 1.54 128 1.54  68 1.54 185 1.54
  52  0.626  0.626  0.959-  72 1.53 132 1.53 186 1.54  14 1.54
  53  0.625  0.625  0.292-  70 1.54 130 1.54  15 1.54 187 1.54
  54  0.626  0.626  0.626-  16 1.54 131 1.54  71 1.54 188 1.54
  55  0.205  0.039  0.205- 136 1.54  91 1.54 190 1.54  38 1.56
  56  0.209  0.042  0.541-  92 1.53 137 1.54 191 1.54  39 1.54
  57  0.211  0.042  0.871- 189 1.51 138 1.52  93 1.53  37 1.55
  58  0.207  0.373  0.207-  41 1.53  94 1.54 193 1.54 139 1.55
  59  0.208  0.375  0.541-  95 1.53  42 1.53 194 1.54 140 1.54
  60  0.208  0.375  0.874- 141 1.53  40 1.54  96 1.54 192 1.54
[...]
 201  0.458  0.458  0.958-  69 1.53 123 1.53  14 1.54 174 1.54
 202  0.458  0.458  0.292-  67 1.53 121 1.53 175 1.54  15 1.54
 203  0.459  0.459  0.625-  68 1.54 122 1.54 176 1.54  16 1.54
 204  0.459  0.791  0.958-  72 1.53  17 1.54 126 1.54 177 1.54
 205  0.458  0.791  0.292- 178 1.54  70 1.54 124 1.54  18 1.54
 206  0.459  0.792  0.625-  71 1.53 179 1.53 125 1.54  19 1.54
 207  0.789  0.129  0.958-  75 1.51  20 1.52 129 1.53 180 1.55
 208  0.789  0.125  0.294-  73 1.53 181 1.53  21 1.53 127 1.54
 209  0.792  0.126  0.625-  22 1.53 182 1.54 128 1.54  74 1.54
 210  0.791  0.459  0.958- 132 1.53  23 1.54  78 1.54 183 1.54
 211  0.791  0.458  0.292- 184 1.54 130 1.54  76 1.54  24 1.54
 212  0.792  0.459  0.625- 131 1.53 185 1.53  77 1.54  25 1.54
 213  0.795  0.795  0.961-  26 1.54  81 1.54 135 1.54 186 1.56
 214  0.791  0.791  0.293- 187 1.53  27 1.54 133 1.54  79 1.54
 215  0.793  0.793  0.627- 188 1.53 134 1.54  80 1.54  28 1.55

  LATTYP: Found a simple cubic cell.
 ALAT       =    10.6460610000

  Lattice vectors:

 A1 = (   7.5279019260,   4.3462362034,   6.1465061842)
 A2 = (  -7.5279019260,   4.3462362034,   6.1465061842)
 A3 = (  -0.0000000000,  -8.6924724068,   6.1465061842)

Analysis of symmetry for initial positions (statically):
 Subroutine PRICEL returns:
 Original cell was already a primitive cell.

 Routine SETGRP: Setting up the symmetry group for a
 simple cubic supercell.

 Subroutine GETGRP returns: Found 12 space group operations
 (whereof 12 operations were pure point group operations)
 out of a pool of 48 trial point group operations.

The static configuration has the point symmetry D_3d.

Analysis of symmetry for dynamics (positions and initial velocities):
 Subroutine PRICEL returns:
 Original cell was already a primitive cell.

[...]

The dynamic configuration has the point symmetry D_3d.

Analysis of structural, dynamic, and magnetic symmetry:
 Subroutine PRICEL returns:
 Original cell was already a primitive cell.

 Routine SETGRP: Setting up the symmetry group for a
 simple cubic supercell.

 Subroutine GETGRP returns: Found 12 space group operations
 (whereof 12 operations were pure point group operations)
 out of a pool of 48 trial point group operations.

The overall configuration has the point symmetry D_3d.

 Subroutine INISYM returns: Found 12 space group operations
 (whereof 12 operations are pure point group operations),
 and found     1 'primitive' translations

                                     Primitive cell

  volume of cell :    1206.6098

  direct lattice vectors                    reciprocal lattice vectors
     7.527901926  4.346236203  6.146506184     0.066419569  0.038347356  0.054231351
    -7.527901926  4.346236203  6.146506184    -0.066419569  0.038347356  0.054231351
    -0.000000000 -8.692472407  6.146506184     0.000000000 -0.076694712  0.054231351

  length of vectors
    10.646061000 10.646061000 10.646061000     0.093931455  0.093931455  0.093931455

  position of ions in fractional coordinates (direct lattice)
     0.000000000  0.000000000  0.000000000
     0.205237057  0.205237057  0.039071197
     0.207198066  0.207198066  0.373235546
     0.208800146  0.208800146  0.707094057
     0.208514142  0.540883058  0.041535161
     0.208210010  0.540723121  0.374719603
     0.208781615  0.541512120  0.707835946
     0.210923727  0.871118976  0.041805819
     0.208361619  0.874142019  0.375236524
     0.210631509  0.874572064  0.706242676
     0.540883058  0.208514142  0.041535161
     0.540723121  0.208210010  0.374719603
     0.541512120  0.208781615  0.707835946
     0.541726762  0.541726762  0.041851556
     0.541432649  0.541432649  0.375131371
     0.542136281  0.542136281  0.708403081
     0.541875835  0.875043182  0.041975053
     0.541331879  0.874753380  0.375815740
     0.542822325  0.875374885  0.708915273
     0.871118976  0.210923727  0.041805819
     0.874142019  0.208361619  0.375236524
     0.874572064  0.210631509  0.706242676
     0.875043182  0.541875835  0.041975053
     0.874753380  0.541331879  0.375815740
     0.875374885  0.542822325  0.708915273
     0.873822105  0.873822105  0.052131847
     0.874684211  0.874684211  0.375856232
     0.876922998  0.876922998  0.710621354
     0.957682664  0.957682664  0.292303181
     0.958985019  0.958985019  0.625444996
     0.957682664  0.292303181  0.957682664
     0.957152063  0.290943546  0.290943546
     0.958286899  0.292963202  0.623742093
[...]
  312          fftbrc_mpi                            0.017065                         26   4
  313            fftbas_plan_mpi                       0.017053                       26   5
  314              map_forward                           0.009290                     28   6
  315                map_gather                            0.000328                   16   7
  316                m_alltoallv_z                         0.000365                   16   7
  317                map_scatter                           0.008409                   16   7
  318              map_backward                          0.006349                     24   6
  319                map_gather                            0.000248                   12   7
  320                m_alltoallv_z                         0.000257                   12   7
  321                map_scatter                           0.005658                   12   7
  322        m_sumb_d                              0.000271                            5   3
  323        m_max_i                               0.000082                            1   3
  324        pothar                                0.000242                            1   3
  325          m_sumb_d                              0.000166                          1   4
  326        m_bcast_d                             0.000030                            2   3
  327      set_dd_magatom                        0.000004                              1   2
  328      set_dd_paw                            0.038320                              1   2
  329        set_rsgf_all                          0.000000                            1   3
  330        rad_aug_charge                        0.000017                           26   3
  331        rad_pot                               0.033833                           26   3
  332          rad_lda_xc_spin                       0.029421                         26   4
  333          rad_gga_xc_spin                       0.003753                         26   4
  334        rad_pot_weight                        0.000044                           26   3
  335        rad_proj                              0.000106                           52   3
  336        rad_aug_proj                          0.000013                           26   3
  337        m_sumb_d                              0.003519                            7   3
  338      setwdes                               0.000004                              2   2
  339      densta                                0.025759                              1   2
  340        m_sumb_d                              0.020693                           16   3
  341        setwdes                               0.000002                            2   3

 Flat profile

 total_time                            137.532492           1
 m_sumb_d                                4.316910       16217
 lapack                                  3.570332        4316
 init_acc                                3.336980           1
 eddav                                   2.848838          17
 redis_pw                                2.785365       11728
 m_bcast_d                               1.356199       12978
 fft3d                                   1.262084       13346
 rspher_all                              0.928681          14
 m_alltoall_d                            0.684509       31884
 acc_cufft_makeplan                      0.632020          19
 m_max_i                                 0.554734          43
 raccmu_                                 0.503706        4316
 rad_lda_xc_spin                         0.444499         390
 set_charge                              0.346298          13
 sphpro_fast                             0.302476           2
 map_scatter                             0.275177         500
 wfinit                                  0.274482           1
 orth1                                   0.207703       12986
 setdij_                                 0.172762          41
 fftwav                                  0.166455        9030
 redis_proj                              0.130651       14754
 rpromu_acc                              0.130448        3284
 m_bcast_z                               0.127383        1216
 racc0mu_acc                             0.118952        4316
 hamiltmu                                0.111236        4316
 m_alltoallv_z                           0.097603         500
 ggemm                                   0.088434        5608
 eccp                                    0.086664        1292
 potlok                                  0.082812          14
 augmentation_charge                     0.078817          13
 w1_copy                                 0.077966       12948
 overl_mu                                0.070297        4316
 overl                                   0.063996        7342
 soft_charge                             0.060830          13
 rad_gga_xc_spin                         0.056016         390
 proall                                  0.051394           1
 fft3d_mpi                               0.051123        4762
 setup_precond                           0.048218        1292
 elmin                                   0.047433           1
 rpro_isp                                0.046827          13
 stufak                                  0.046073           1
 acc_init_cublas                         0.045741           1
 brmix                                   0.043156          13
 dfftw_execute                           0.038857         171
 choleski                                0.038069           2
 newband                                 0.032432        4350
 fftext_mpi                              0.030921        4316
 fftbas_plan_mpi                         0.027939         446
 vhamil                                  0.027036        4316
 acc_init_cusolver                       0.026645           1
 apply_precond                           0.025660        3024
 kinhamil                                0.023632        4316
 map_gather                              0.020463         500
 rsp                                     0.017557           1
 setwdes                                 0.016249       13941
 fftwav_mpi                              0.015027        9030
 depsum                                  0.014645          13
 lincom                                  0.014304          36
 set_dd_paw                              0.012451          15
 pw_charge                               0.011892         702
 inisym                                  0.010340           1
 rad_pot                                 0.009778         406
 force_and_stress                        0.009501           1
 setg0                                   0.007148          15
 densta                                  0.006507          18
 broyd                                   0.003963          13
 fftwav_w1                               0.003699        8042
 w1_projall                              0.003374        3024
 orthch                                  0.003218           1
 map_backward                            0.003064         466
 map_forward                             0.002955         426
 fft_gq                                  0.002793          13
 posmap                                  0.002381           2
 rad_lda_xc                              0.002076          16
 strnlr                                  0.001891           1
 brget                                   0.001845         501
 splcof                                  0.001799          42
 forloc                                  0.001690           1
 potxc                                   0.001628           1
 rad_proj                                0.001591         788
 strelo                                  0.001462           1
 bandgap                                 0.001336           1
 strehar                                 0.001158           1
 pothar                                  0.001122          15
 rad_gga_xc                              0.000812          16
 brpre                                   0.000757          26
 splval                                  0.000736        5326
 brsav                                   0.000711         145
 fewald                                  0.000704           1
 rad_pot_weight                          0.000683         398
 forhar                                  0.000680           2
 truncate_high_frequency_w1              0.000627        5608
 fornlr                                  0.000595           1
 strkin                                  0.000528           1
 rcp                                     0.000433           1
 rad_aug_charge                          0.000309         392
 fftbrc_mpi                              0.000288         446
 phaser                                  0.000239          47
 rad_aug_proj                            0.000232         394
 chggra                                  0.000224           1
 fordep                                  0.000108           1
 brgrid                                  0.000088           1
 vectorpot                               0.000066          14
 set_dd_magatom                          0.000066          15
 crpa_reader                             0.000029           1
 acc_cufft_makeplans                     0.000021           3
 set_rsgf_all                            0.000007          15
 kpar_sync_all                           0.000001           1
 redis_pw_over_bands                     0.000000           1
 rotate_active_occupied_orbital          0.000000           1
  summed up times     164.7538118362427

 Accumulative profile

 total_time                            164.753812           1
 elmin                                  19.266357           1
 eddav                                  17.112578          17
 m_sumb_d                                4.316910       16217
 lapack                                  3.570332        4316
 init_acc                                3.339664           1
 redis_pw                                3.107886       11728
 m_bcast_d                               1.356199       12978
 force_and_stress                        1.327104           1
 fftwav_mpi                              1.295448        9030
 fftwav                                  1.280421        9030
 fft3d                                   1.262084       13346
 fftwav_w1                               1.196930        8042
 set_charge                              1.072796          13
 hamiltmu                                1.035935        4316
 rspher_all                              0.928681          14
 strnlr                                  0.786209           1
 newband                                 0.754595        4350
 raccmu_                                 0.692955        4316
 m_alltoall_d                            0.684509       31884
 fft3d_mpi                               0.665588        4762
 acc_cufft_makeplans                     0.632041           3
 acc_cufft_makeplan                      0.632020          19
 set_dd_paw                              0.581956          15
 m_max_i                                 0.554734          43
 brgrid                                  0.549418           1
 rad_pot                                 0.513181         406
 redis_proj                              0.492639       14754
 potlok                                  0.468124          14
 fftbrc_mpi                              0.466347         446
 fftbas_plan_mpi                         0.466058         446
 rad_lda_xc_spin                         0.444499         390
 soft_charge                             0.409180          13
 wfinit                                  0.402230           1
 sphpro_fast                             0.343683           2
 map_scatter                             0.275177         500
 fornlr                                  0.259676           1
 map_forward                             0.234214         426
 orthch                                  0.230111           1
 rpro_isp                                0.209107          13
 orth1                                   0.207703       12986
 kinhamil                                0.204707        4316
 setdij_                                 0.196502          41
 fftext_mpi                              0.181075        4316
 map_backward                            0.165048         466
 rpromu_acc                              0.130448        3284
 m_bcast_z                               0.127383        1216
 augmentation_charge                     0.127324          13
 racc0mu_acc                             0.118952        4316
 m_alltoallv_z                           0.097603         500
 ggemm                                   0.088434        5608
 eccp                                    0.086664        1292
 w1_copy                                 0.077966       12948
 w1_projall                              0.076196        3024
 proall                                  0.071903           1
 brmix                                   0.071434          13
 overl_mu                                0.070297        4316
 fft_gq                                  0.065890          13
 overl                                   0.063996        7342
 rad_gga_xc_spin                         0.056016         390
 densta                                  0.049240          18
 setup_precond                           0.048218        1292
 stufak                                  0.046073           1
 acc_init_cublas                         0.045741           1
 dfftw_execute                           0.038857         171
 choleski                                0.038069           2
 fordep                                  0.028065           1
 depsum                                  0.027973          13
 vhamil                                  0.027036        4316
 acc_init_cusolver                       0.026645           1
 apply_precond                           0.025660        3024
 fewald                                  0.021645           1
 map_gather                              0.020463         500
 rsp                                     0.017557           1
 potxc                                   0.016374           1
 setwdes                                 0.016249       13941
 lincom                                  0.014304          36
 broyd                                   0.014031          13
 inisym                                  0.012721           1
 pw_charge                               0.011892         702
 setg0                                   0.007148          15
 chggra                                  0.003897           1
 pothar                                  0.003827          15
 posmap                                  0.002381           2
 rad_lda_xc                              0.002076          16
 forloc                                  0.001871           1
 brget                                   0.001845         501
 splcof                                  0.001799          42
 strelo                                  0.001780           1
 rad_proj                                0.001591         788
 bandgap                                 0.001336           1
 strehar                                 0.001229           1
 forhar                                  0.000972           2
 rad_gga_xc                              0.000812          16
 brpre                                   0.000757          26
 splval                                  0.000736        5326
 brsav                                   0.000711         145
 rad_pot_weight                          0.000683         398
 truncate_high_frequency_w1              0.000627        5608
 strkin                                  0.000575           1
 rcp                                     0.000433           1
 rad_aug_charge                          0.000309         392
 phaser                                  0.000239          47
 rad_aug_proj                            0.000232         394
 vectorpot                               0.000066          14
 set_dd_magatom                          0.000066          15
 crpa_reader                             0.000029           1
 set_rsgf_all                            0.000007          15
 kpar_sync_all                           0.000001           1
 redis_pw_over_bands                     0.000000           1
 rotate_active_occupied_orbital          0.000000           1

Profiling took   0.069362  0.023546  0.003372  0.003332 seconds
Profiling took   0.036675 seconds