 vasp.5.4.4.18Apr17-6-g9f103f2a35 (build Dec 19 2024 10:44:08) gamma-only
 executed on NVIDIA22.7_CrayMPICH date 2025.04.27  09:07:00

 INCAR:
 POTCAR:   PAW_PBE Si 05Jan2001
 POTCAR:   PAW_PBE C 08Apr2002
 POTCAR:   PAW_PBE Si 05Jan2001
   VRHFIN =Si: s2p2

   TITEL  = PAW_PBE Si 05Jan2001
   POMASS =   28.085; ZVAL   =    4.000    mass and valenz
   ENMAX  =  245.345; ENMIN  =  184.009 eV
   QCUT   =   -4.246; QGAM   =    8.493    optimization parameters

   Description
     l     E      TYP  RCUT    TYP  RCUT
     0   .000     23  1.900
     0   .000     23  1.900
     1   .000     23  1.900
     1   .000     23  1.900
     2   .000      7  1.900

 POTCAR:   PAW_PBE C 08Apr2002
   VRHFIN =C: s2p2

   TITEL  = PAW_PBE C 08Apr2002
   POMASS =   12.011; ZVAL   =    4.000    mass and valenz
   ENMAX  =  400.000; ENMIN  =  300.000 eV
   QCUT   =   -5.516; QGAM   =   11.032    optimization parameters

   Description
     l     E      TYP  RCUT    TYP  RCUT
     0   .000     23  1.200
     0   .000     23  1.200
     1   .000     23  1.500
     1  2.500     23  1.500
     2   .000      7  1.500

 Optimization of the real space projectors (new method)

 maximal supplied QI-value         = 19.84
 optimisation between [QCUT,QGAM] = [ 10.12, 20.44] = [ 28.68,116.96] Ry
 Optimized for a Real-space Cutoff    1.38 Angstroem

   l    n(q)    QCUT    max X(q) W(low)/X(q) W(high)/X(q)  e(spline)
   0      8    10.119     8.708    0.16E-04    0.67E-05    0.60E-08
   0      8    10.119   106.241    0.56E-04    0.11E-03    0.54E-07
   1      8    10.119     5.901    0.16E-04    0.16E-05    0.22E-07
   1      8    10.119    73.241    0.22E-03    0.17E-03    0.18E-06
 Optimization of the real space projectors (new method)

 maximal supplied QI-value         = 25.13
 optimisation between [QCUT,QGAM] = [ 10.05, 20.36] = [ 28.30,116.06] Ry
 Optimized for a Real-space Cutoff    1.38 Angstroem

   l    n(q)    QCUT    max X(q) W(low)/X(q) W(high)/X(q)  e(spline)
   0      8    10.053     5.582    0.33E-04    0.15E-04    0.75E-07
   0      8    10.053    69.432    0.23E-03    0.38E-03    0.25E-06
   1      8    10.053     2.780    0.76E-04    0.11E-03    0.15E-06
   1      8    10.053     4.549    0.19E-03    0.19E-03    0.27E-06
 PAW_PBE Si 05Jan2001                   :
 PAW_PBE C 08Apr2002                    :

 POSCAR: Si1 C214
  positions in direct lattice
  velocities in cartesian coordinates
 exchange correlation table for  LEXCH =        8
   RHO(1)=    0.500       N(1)  =     2000
   RHO(2)=  100.500       N(2)  =     4000

 ion  position               nearest neighbor table
   1  0.500  0.500  0.500- 108 1.98 131 1.98  16 1.98  71 1.98 162 1.98 215 1.98
   2  0.041  0.041  0.875-  91 1.54 139 1.54  41 1.54 189 1.54
   3  0.042  0.042  0.208-  92 1.53 140 1.53  42 1.54 190 1.54
   4  0.042  0.042  0.542-  93 1.53 141 1.53 191 1.54  43 1.54
   5  0.041  0.375  0.876-  44 1.53 142 1.53 192 1.54  94 1.54
   6  0.043  0.375  0.209- 143 1.53  45 1.53  95 1.54 193 1.54
   7  0.042  0.375  0.542- 144 1.53 194 1.54  96 1.54  46 1.54
   8  0.041  0.708  0.875- 136 1.53  38 1.53  97 1.54 195 1.54
   9  0.042  0.709  0.208-  39 1.54 137 1.54  98 1.54 196 1.54
  10  0.041  0.709  0.542- 138 1.53 197 1.54  99 1.54  40 1.54
  11  0.375  0.041  0.876-  50 1.53 100 1.53 198 1.54 148 1.54
  12  0.375  0.043  0.209- 101 1.53  51 1.53 149 1.54 199 1.54
  13  0.375  0.042  0.542- 102 1.53 200 1.54 150 1.54  52 1.54
  14  0.375  0.375  0.876-  53 1.53 201 1.54 151 1.54 103 1.54
  15  0.377  0.377  0.211-  54 1.53 104 1.54 152 1.54 202 1.55
  16  0.374  0.374  0.552- 105 1.51 153 1.51 203 1.54   1 1.98
  17  0.374  0.708  0.875- 204 1.53  47 1.54 145 1.54 106 1.54
  18  0.375  0.711  0.206- 107 1.53  48 1.53 205 1.53 146 1.54
  19  0.371  0.711  0.542- 108 1.51 206 1.52 147 1.53  49 1.55
  20  0.708  0.041  0.875-  82 1.53  32 1.53 157 1.54 207 1.54
  21  0.709  0.042  0.208-  33 1.54  83 1.54 158 1.54 208 1.54
  22  0.709  0.041  0.542-  84 1.53 209 1.54 159 1.54  34 1.54
  23  0.708  0.374  0.875- 210 1.53  35 1.54  85 1.54 160 1.54
  24  0.711  0.375  0.206- 161 1.53  36 1.53 211 1.53  86 1.54
  25  0.711  0.371  0.542- 162 1.51 212 1.52  87 1.53  37 1.55
  26  0.707  0.707  0.873-  29 1.53  88 1.54 154 1.54 213 1.55
  27  0.709  0.709  0.207-  30 1.53 214 1.54 155 1.54  89 1.54
  28  0.705  0.705  0.539- 215 1.54 156 1.54  90 1.54  31 1.56
  29  0.791  0.791  0.791-  26 1.53  75 1.53 117 1.53 163 1.54
  30  0.792  0.792  0.124-  27 1.53  73 1.53 115 1.53 164 1.54
  31  0.791  0.791  0.457-  74 1.54 116 1.54 165 1.54  28 1.56
  32  0.792  0.124  0.792-  78 1.53  20 1.53 111 1.53 166 1.54
  33  0.792  0.125  0.125-  21 1.54  76 1.54 109 1.54 167 1.54
  34  0.793  0.124  0.458-  77 1.53 110 1.53 168 1.54  22 1.54
  35  0.791  0.457  0.791-  23 1.54 114 1.54 169 1.54  81 1.56
  36  0.793  0.458  0.124-  24 1.53 112 1.53 170 1.54  79 1.54
  37  0.792  0.458  0.458- 171 1.53 113 1.53  25 1.55  80 1.55
  38  0.124  0.792  0.792- 126 1.53  57 1.53   8 1.53 172 1.54
  39  0.125  0.792  0.125-   9 1.54 124 1.54  55 1.54 173 1.54
  40  0.124  0.793  0.458- 125 1.53  56 1.53 174 1.54  10 1.54
  41  0.125  0.125  0.792-  60 1.54 120 1.54   2 1.54 175 1.54
  42  0.126  0.126  0.126-   3 1.54  58 1.54 118 1.54 176 1.54
  43  0.126  0.126  0.459-  59 1.53 119 1.53 177 1.54   4 1.54
  44  0.124  0.458  0.793- 123 1.53   5 1.53 178 1.54  63 1.54
  45  0.126  0.459  0.126-   6 1.53 121 1.53 179 1.54  61 1.54
  46  0.125  0.459  0.459- 180 1.53 122 1.53   7 1.54  62 1.54
  47  0.457  0.791  0.791-  17 1.54  66 1.54 181 1.54 135 1.56
  48  0.458  0.793  0.124-  18 1.53  64 1.53 182 1.54 133 1.54
  49  0.458  0.792  0.458- 183 1.53  65 1.53 134 1.55  19 1.55
  50  0.458  0.124  0.793-  69 1.53  11 1.53 184 1.54 129 1.54
  51  0.459  0.126  0.126-  12 1.53  67 1.53 185 1.54 127 1.54
  52  0.459  0.125  0.459- 186 1.53  68 1.53  13 1.54 128 1.54
  53  0.458  0.458  0.792- 187 1.53  14 1.53 132 1.55  72 1.55
  54  0.459  0.459  0.125- 188 1.53  15 1.53  70 1.54 130 1.54
  55  0.041  0.875  0.041-  91 1.54 190 1.54  39 1.54 136 1.54
  56  0.041  0.876  0.375-  40 1.53 191 1.53 137 1.54  92 1.54
  57  0.041  0.875  0.708- 189 1.53  38 1.53  93 1.54 138 1.54
  58  0.042  0.208  0.042-  94 1.53 193 1.53  42 1.54 139 1.54
  59  0.043  0.209  0.375- 194 1.53  43 1.53  95 1.54 140 1.54
  60  0.042  0.208  0.709-  41 1.54 192 1.54  96 1.54 141 1.54
[...]
 201  0.291  0.291  0.793- 175 1.53  14 1.54 123 1.54  69 1.54
 202  0.293  0.293  0.127- 176 1.53 121 1.54  67 1.54  15 1.55
 203  0.295  0.295  0.461-  16 1.54  68 1.54 122 1.54 177 1.56
 204  0.289  0.625  0.794-  72 1.53 178 1.53  17 1.53 126 1.54
 205  0.292  0.626  0.125-  18 1.53 179 1.54 124 1.54  70 1.54
 206  0.289  0.629  0.458-  71 1.51  19 1.52 125 1.53 180 1.55
 207  0.625  0.957  0.791- 129 1.53 181 1.53  75 1.54  20 1.54
 208  0.625  0.959  0.124- 182 1.53 127 1.53  21 1.54  73 1.54
 209  0.625  0.958  0.458- 128 1.53  22 1.54  74 1.54 183 1.54
 210  0.625  0.289  0.794- 132 1.53 184 1.53  23 1.53  78 1.54
 211  0.626  0.292  0.125-  24 1.53 185 1.54  76 1.54 130 1.54
 212  0.629  0.289  0.458- 131 1.51  25 1.52  77 1.53 186 1.55
 213  0.623  0.623  0.789- 187 1.53 135 1.54  81 1.54  26 1.55
 214  0.625  0.625  0.124- 188 1.53  27 1.54 133 1.54  79 1.54
 215  0.626  0.626  0.448-  80 1.51 134 1.51  28 1.54   1 1.98

IMPORTANT INFORMATION: All symmetrisations will be switched off!
NOSYMM: (Re-)initialisation of all symmetry stuff for point group C_1.

 KPOINTS: pymatgen v1.1 with grid density = 2210 /

Automatic generation of k-mesh.
Space group operators:
 irot       det(A)        alpha          n_x          n_y          n_z        tau_x        tau_y        tau_z
    1     1.000000     0.000001     1.000000     0.000000     0.000000     0.000000     0.000000     0.000000

 Subroutine IBZKPT returns following result:

 Found      1 irreducible k-points:

 Following reciprocal coordinates:
            Coordinates               Weight
  0.000000  0.000000  0.000000      1.000000

 Following cartesian coordinates:
            Coordinates               Weight
  0.000000  0.000000  0.000000      1.000000

 Subroutine IBZKPT_HF returns following result:

 Found      1 k-points in 1st BZ
 the following      1 k-points will be used (e.g. in the exchange kernel)
 Following reciprocal coordinates:   # in IRBZ
  0.000000  0.000000  0.000000    1.00000000   1 t-inv F

 SYSTEM =  unknown system
 POSCAR =  Si1 C214

 Startparameter for this run:
   NWRITE =      2    write-flag & timer
   PREC   = accura    normal or accurate (medium, high low for compatibility)
   ISTART =      1    job   : 0-new  1-cont  2-samecut
   ICHARG =      2    charge: 1-file 2-atom 10-const
   ISPIN  =      2    spin polarized calculation?
   LNONCOLLINEAR =      F non collinear calculations
   LSORBIT =      F    spin-orbit coupling
   INIWAV =      1    electr: 0-lowe 1-rand  2-diag
   LASPH  =      F    aspherical Exc in radial PAW
   METAGGA=      F    non-selfconsistent MetaGGA calc.

 Electronic Relaxation 1
   ENCUT  =  400.0 eV  29.40 Ry    5.42 a.u.  17.36 17.36 17.36*2*pi/ulx,y,z
   ENINI  =  400.0     initial cutoff
   ENAUG  =  644.9 eV  augmentation charge cutoff
   NELM   =    100;   NELMIN=  2; NELMDL=  0     # of ELM steps
   EDIFF  = 0.1E-04   stopping-criterion for ELM
   LREAL  =      T    real-space projection
   NLSPLINE    = F    spline interpolate recip. space projectors
   LCOMPAT=      F    compatible to vasp.4.4
   GGA_COMPAT  = T    GGA compatible to vasp.4.4-vasp.4.6
   LMAXPAW     = -100 max onsite density
   LMAXMIX     =    2 max onsite mixed and CHGCAR
   VOSKOWN=      0    Vosko Wilk Nusair interpolation
   ROPT   =   -0.00025  -0.00025
 Ionic relaxation
   EDIFFG = -.1E-01   stopping-criterion for IOM
   NSW    =     99    number of steps for IOM
   NBLOCK =      1;   KBLOCK =     99    inner block; outer block
   IBRION =      2    ionic relax: 0-MD 1-quasi-New 2-CG
   NFREE  =      1    steps in history (QN), initial steepest desc. (CG)
   ISIF   =      2    stress and relaxation
   IWAVPR =     11    prediction:  0-non 1-charg 2-wave 3-comb
   ISYM   =      0    0-nonsym 1-usesym 2-fastsym
   LCORR  =      T    Harris-Foulkes like correction to forces

   POTIM  = 0.5000    time-step for ionic-motion
   TEIN   =    0.0    initial temperature
   TEBEG  =    0.0;   TEEND  =   0.0 temperature during run
   SMASS  =  -3.00    Nose mass-parameter (am)
   estimated Nose-frequenzy (Omega)   =  0.10E-29 period in steps =****** mass=  -0.259E-26a.u.
   SCALEE = 1.0000    scale energy and forces
   NPACO  =    256;   APACO  = 16.0  distance and # of slots for P.C.
   PSTRESS=    0.0 pullay stress

  Mass of Ions in am
   POMASS =  28.09 12.01
  Ionic Valenz
   ZVAL   =   4.00  4.00
  Atomic Wigner-Seitz radii
  virtual crystal weights
   VCA    =   1.00  1.00
   NELECT =     860.0000    total number of electrons
   NUPDOWN=       2.0000    fix difference up-down

 DOS related values:
   EMIN   =  10.00;   EMAX   =-10.00  energy-range for DOS
   EFERMI =   0.00
   ISMEAR =    -2;   SIGMA  =   0.05  broadening in eV -4-tet -1-fermi 0-gaus

 Electronic relaxation 2 (details)
[...]
   -.460E+01 -.431E+01 0.468E+01   0.460E+01 0.430E+01 -.471E+01   -.649E-03 0.302E-02 0.214E-01
   -.518E+01 -.523E+01 -.205E+02   0.529E+01 0.519E+01 0.208E+02   -.115E+00 0.351E-01 -.338E+00
   -.442E+02 -.429E+02 0.451E+02   0.474E+02 0.461E+02 -.488E+02   -.310E+01 -.306E+01 0.343E+01
   -.653E+01 0.431E+01 0.479E+01   0.661E+01 -.431E+01 -.491E+01   -.672E-01 0.169E-02 0.114E+00
   -.314E+01 0.757E+01 -.723E+01   0.318E+01 -.756E+01 0.721E+01   -.292E-01 -.225E-01 0.243E-01
   -.242E+02 0.206E+02 0.683E+01   0.243E+02 -.208E+02 -.654E+01   -.486E-01 0.205E+00 -.280E+00
   0.335E+01 0.882E+00 0.264E+01   -.339E+01 -.925E+00 -.270E+01   0.334E-01 0.462E-01 0.491E-01
   0.318E+01 -.918E+00 -.169E+01   -.325E+01 0.929E+00 0.173E+01   0.669E-01 -.649E-02 -.384E-01
   0.499E+01 -.690E+00 0.454E-01   -.503E+01 0.716E+00 -.615E-01   0.321E-01 -.147E-01 0.170E-01
   0.469E+01 -.636E+01 0.489E+01   -.470E+01 0.644E+01 -.493E+01   0.172E-02 -.761E-01 0.358E-01
   0.728E+01 -.244E+01 -.687E+01   -.736E+01 0.256E+01 0.695E+01   0.654E-01 -.104E+00 -.668E-01
   0.209E+02 -.239E+02 0.647E+01   -.210E+02 0.237E+02 -.656E+01   0.103E+00 0.231E+00 0.841E-01
   0.675E+01 0.661E+01 0.851E+01   -.685E+01 -.670E+01 -.867E+01   0.101E+00 0.905E-01 0.160E+00
   0.633E+01 0.601E+01 -.626E+01   -.637E+01 -.603E+01 0.643E+01   0.315E-01 0.123E-01 -.150E+00
   0.225E+02 0.219E+02 -.519E+01   -.230E+02 -.224E+02 0.520E+01   0.513E+00 0.462E+00 0.238E-02
   0.528E+01 0.511E+01 0.416E+01   -.532E+01 -.512E+01 -.421E+01   0.407E-01 0.178E-01 0.463E-01
   0.209E+01 0.187E+01 -.413E+00   -.211E+01 -.188E+01 0.426E+00   0.290E-01 0.159E-01 -.433E-02
   0.942E+01 0.912E+01 -.694E+01   -.966E+01 -.933E+01 0.719E+01   0.232E+00 0.204E+00 -.235E+00
   0.221E+01 -.123E+01 0.116E+01   -.221E+01 0.120E+01 -.117E+01   0.135E-02 0.375E-01 0.869E-02
   0.185E+01 -.232E+01 -.150E+01   -.185E+01 0.233E+01 0.157E+01   -.778E-02 -.710E-02 -.601E-01
   0.446E+01 -.234E+01 -.309E+01   -.453E+01 0.238E+01 0.305E+01   0.521E-01 -.327E-01 0.431E-01
   0.988E+01 -.771E+01 0.857E+01   -.100E+02 0.791E+01 -.875E+01   0.132E+00 -.185E+00 0.180E+00
   0.500E+01 -.290E+01 -.241E+01   -.501E+01 0.288E+01 0.242E+01   0.769E-02 0.265E-01 -.180E-02
   0.247E+02 -.676E+01 -.690E+01   -.250E+02 0.689E+01 0.696E+01   0.313E+00 -.116E+00 -.560E-01
   -.116E+01 0.185E+01 0.101E+01   0.116E+01 -.187E+01 -.104E+01   -.115E-02 0.169E-01 0.341E-01
   -.243E+01 0.163E+01 -.153E+01   0.245E+01 -.162E+01 0.158E+01   -.972E-02 -.180E-01 -.359E-01
   -.253E+01 0.444E+01 -.285E+01   0.256E+01 -.442E+01 0.287E+01   -.240E-01 -.283E-01 -.140E-01
   -.231E+01 -.224E+01 0.778E+00   0.236E+01 0.227E+01 -.781E+00   -.536E-01 -.258E-01 -.294E-02
   -.380E+01 -.371E+01 -.313E+01   0.385E+01 0.376E+01 0.319E+01   -.536E-01 -.517E-01 -.531E-01
   -.520E+01 -.509E+01 0.226E+00   0.524E+01 0.510E+01 -.205E+00   -.421E-01 -.166E-01 -.277E-01
   -.315E+01 -.326E+01 0.345E+01   0.315E+01 0.323E+01 -.351E+01   0.182E-01 0.333E-01 0.498E-01
   -.561E+01 -.463E+00 -.458E+01   0.561E+01 0.472E+00 0.462E+01   -.156E-01 -.145E-01 -.415E-01
   -.118E+02 0.781E+00 0.116E+01   0.119E+02 -.796E+00 -.119E+01   -.750E-01 0.112E-01 0.171E-01
   -.772E+01 0.960E+01 0.858E+01   0.800E+01 -.983E+01 -.888E+01   -.258E+00 0.218E+00 0.290E+00
   -.263E+01 0.506E+01 -.250E+01   0.265E+01 -.501E+01 0.248E+01   -.231E-01 -.508E-01 0.232E-01
   -.712E+01 0.248E+02 -.657E+01   0.719E+01 -.252E+02 0.674E+01   -.595E-01 0.346E+00 -.155E+00
   -.321E+01 -.310E+01 0.358E+01   0.318E+01 0.307E+01 -.367E+01   0.359E-01 0.350E-01 0.759E-01
   -.516E+00 -.551E+01 -.460E+01   0.564E+00 0.555E+01 0.469E+01   -.489E-01 -.396E-01 -.858E-01
   0.781E+00 -.118E+02 0.102E+01   -.797E+00 0.119E+02 -.105E+01   0.114E-01 -.885E-01 0.202E-01
   -.719E+01 -.666E+01 0.236E+02   0.724E+01 0.687E+01 -.239E+02   -.394E-01 -.191E+00 0.253E+00
   0.732E+00 0.604E+00 -.113E+02   -.790E+00 -.666E+00 0.114E+02   0.495E-01 0.552E-01 -.644E-01
   0.336E+00 0.178E+01 0.441E+00   -.361E+00 -.179E+01 -.469E+00   0.304E-01 0.142E-01 0.283E-01
   -.496E+00 0.132E+01 0.776E+00   0.493E+00 -.129E+01 -.749E+00   0.494E-02 -.252E-01 -.276E-01
   0.856E+00 0.312E+01 0.220E+01   -.867E+00 -.315E+01 -.224E+01   0.176E-01 0.314E-01 0.364E-01
   -.114E+01 -.829E+00 -.898E+00   0.115E+01 0.826E+00 0.907E+00   -.109E-01 0.879E-03 -.191E-01
   -.450E+01 -.433E+01 0.527E+00   0.455E+01 0.437E+01 -.531E+00   -.556E-01 -.383E-01 0.259E-02
   -.116E+01 -.253E+01 0.232E+01   0.115E+01 0.252E+01 -.235E+01   0.871E-02 0.177E-01 0.217E-01
[...]
   -.675E+01 -.661E+01 -.851E+01   0.685E+01 0.670E+01 0.867E+01   -.101E+00 -.905E-01 -.160E+00
   -.225E+02 -.219E+02 0.519E+01   0.230E+02 0.224E+02 -.520E+01   -.513E+00 -.462E+00 -.240E-02
   -.728E+01 0.244E+01 0.687E+01   0.736E+01 -.256E+01 -.695E+01   -.654E-01 0.104E+00 0.669E-01
   -.469E+01 0.636E+01 -.489E+01   0.470E+01 -.644E+01 0.493E+01   -.169E-02 0.762E-01 -.358E-01
   -.209E+02 0.239E+02 -.647E+01   0.210E+02 -.237E+02 0.656E+01   -.103E+00 -.231E+00 -.841E-01
   0.215E+00 0.440E+01 0.350E+01   -.210E+00 -.446E+01 -.357E+01   -.344E-03 0.560E-01 0.686E-01
   0.231E+00 0.595E+00 -.563E+00   -.251E+00 -.592E+00 0.581E+00   0.157E-01 -.900E-02 -.117E-01
   0.359E+01 0.452E+01 -.291E+01   -.365E+01 -.456E+01 0.296E+01   0.611E-01 0.423E-01 -.432E-01
   0.314E+01 -.757E+01 0.723E+01   -.318E+01 0.756E+01 -.721E+01   0.292E-01 0.225E-01 -.243E-01
   0.653E+01 -.431E+01 -.479E+01   -.661E+01 0.431E+01 0.491E+01   0.672E-01 -.172E-02 -.114E+00
   0.242E+02 -.206E+02 -.683E+01   -.243E+02 0.208E+02 0.654E+01   0.486E-01 -.205E+00 0.280E+00
   0.518E+01 0.523E+01 0.205E+02   -.529E+01 -.519E+01 -.208E+02   0.115E+00 -.351E-01 0.338E+00
   0.460E+01 0.431E+01 -.468E+01   -.460E+01 -.430E+01 0.471E+01   0.677E-03 -.300E-02 -.214E-01
   0.442E+02 0.429E+02 -.451E+02   -.474E+02 -.461E+02 0.488E+02   0.310E+01 0.306E+01 -.343E+01
   -.937E-04 -.339E-04 -.234E-03   -.137E-11 0.853E-13 0.398E-12   0.138E-03 0.492E-04 0.604E-04

 POSITION                                       TOTAL-FORCE (eV/Angst)
      5.32303      5.32303      5.32303        -0.000019      0.000006      0.000006
      0.44068      0.44107      9.31651         0.006894      0.005351      0.001188
      0.44879      0.44837      2.21899        -0.001899     -0.000069     -0.003946
      0.44344      0.44403      5.76812         0.002036      0.006058      0.003366
      0.43967      3.98948      9.32432         0.003615     -0.000202     -0.003371
      0.45477      3.99607      2.22270         0.001453     -0.000624      0.001581
      0.44509      3.99198      5.76980        -0.000476      0.001891      0.002124
      0.43438      7.54051      9.31266        -0.003092     -0.004410     -0.001962
      0.44203      7.54605      2.21209         0.005104      0.000881      0.003587
      0.43528      7.54342      5.76533         0.003792      0.001430      0.000760
      3.98974      0.43988      9.32400         0.003227      0.005107     -0.001583
      3.99645      0.45521      2.22340        -0.001676      0.002277      0.002681
      3.99240      0.44579      5.76957        -0.000514      0.000434     -0.000228
      3.98901      3.98963      9.32141        -0.007154     -0.004989     -0.000977
      4.01204      4.01153      2.24407         0.003362      0.003191     -0.004323
      3.96421      3.97083      5.86668        -0.002082      0.001628     -0.004481
      3.98419      7.54076      9.31549        -0.000720     -0.001770     -0.003423
      3.98639      7.56199      2.20217         0.002354     -0.006619      0.000224
      3.94685      7.57398      5.77054         0.000087     -0.002588     -0.003267
      7.53970      0.43454      9.31196        -0.001722      0.000561     -0.002915
      7.54540      0.44225      2.21216         0.002544      0.003504      0.002966
      7.54313      0.43525      5.76516         0.000514      0.005227      0.001324
      7.54093      3.98444      9.31549        -0.001698     -0.000189     -0.007253
      7.56369      3.98683      2.20102        -0.002968      0.001371     -0.000666
      7.57280      3.94865      5.76622         0.002173     -0.003468     -0.003682
      7.52872      7.52869      9.29685         0.000980      0.003092     -0.002319
      7.54703      7.54698      2.20527        -0.002440     -0.004769      0.000624
      7.51335      7.51158      5.74182         0.000906     -0.000734      0.001376
      8.41749      8.41757      8.41757        -0.002540     -0.002799     -0.001670
      8.42972      8.42988      1.31969         0.004095      0.001175      0.002997
      8.42528      8.42462      4.86867         0.001657      0.002067     -0.002699
      8.42960      1.31978      8.42937         0.001990      0.002608      0.002274
      8.43405      1.32923      1.32978        -0.004601      0.000867      0.003047
      8.44343      1.31529      4.87872        -0.001177     -0.001941      0.003455
      8.42224      4.86730      8.42016        -0.003662     -0.000033      0.003895
      8.44018      4.87829      1.31934         0.001913      0.005521      0.003125
      8.43846      4.87412      4.87275        -0.006606      0.001850      0.000844
      1.31967      8.43012      8.42969         0.001241      0.001064      0.003640
      1.32988      8.43413      1.33002         0.000406     -0.004111      0.002825
      1.31659      8.44288      4.87952        -0.003075     -0.003228      0.003647
      1.32957      1.32921      8.43409        -0.002674     -0.001734     -0.003294
      1.33761      1.33721      1.33763        -0.004257     -0.002465      0.000917
      1.33655      1.33647      4.88482         0.000183      0.002010     -0.005524
      1.31627      4.87766      8.44193         0.003048      0.003939     -0.001552
      1.33828      4.88499      1.33809        -0.004161     -0.003623      0.003177
      1.33308      4.88631      4.88521        -0.003271      0.000237     -0.001394
      4.86792      8.42094      8.41944         0.000657     -0.002471      0.004632
      4.87943      8.43904      1.32086         0.004579     -0.000624      0.002307
      4.87323      8.43572      4.87432        -0.000796     -0.006445      0.002104
      4.87797      1.31664      8.44130         0.000889      0.002472     -0.000776
      4.88539      1.33851      1.33842        -0.001837     -0.001841      0.004239
      4.88613      1.33424      4.88523        -0.000284     -0.000421      0.001080
      4.87384      4.87635      8.42970         0.000052      0.001801     -0.004808
      4.88585      4.88596      1.33730        -0.002359     -0.000051     -0.000681
      0.44131      9.31719      0.44095         0.005544     -0.000288      0.000732
      0.44000      9.32426      3.98998         0.000479      0.002177     -0.001778
      0.43367      9.31303      7.53976         0.002818      0.003191      0.000509
      0.44839      2.21854      0.44869         0.001081     -0.000824     -0.007593
      0.45473      2.22315      3.99568         0.001587      0.001490      0.001507
      0.44141      2.21180      7.54583         0.001804      0.003233      0.000757
[...]
      3.09903      3.09908      8.44080         0.002447      0.004745     -0.000661
      3.11734      3.11737      1.34921        -0.000952     -0.003111      0.002338
      3.13271      3.13448      4.90424        -0.000909      0.000754     -0.001376
      3.08237      6.65923      8.44504         0.003001     -0.001287      0.000697
      3.10513      6.66162      1.33057         0.001726      0.000251      0.007227
      3.07326      6.69741      4.87984        -0.002141      0.003537      0.003730
      6.64961     10.19085      8.42266         0.001659     -0.002363     -0.002665
      6.65632     10.20618      1.32206        -0.003231     -0.005095      0.001592
      6.65366     10.20027      4.87650         0.000538     -0.000516      0.000175
      6.65967      3.08408      8.44389        -0.002309      0.006600     -0.000171
      6.66188      3.10530      1.33058         0.000739      0.001684      0.003411
      6.69921      3.07208      4.87553        -0.000111      0.002512      0.003249
      6.63402      6.63453      8.40199        -0.003330     -0.003118      0.004279
      6.65705      6.65643      1.32465         0.007187      0.005090      0.000913
      6.68185      6.67523      4.77938         0.002128     -0.001564      0.004512
    total drift:                                0.000052      0.000020     -0.000167

  FREE ENERGIE OF THE ION-ELECTRON SYSTEM (eV)
  free  energy   TOTEN  =     -2409.32991394 eV

  energy  without entropy=    -2409.32991394  energy(sigma->0) =    -2409.32991394

 d Force = 0.8925013E-04[-0.938E-04, 0.272E-03]  d Energy = 0.8739873E-04 0.185E-05
 d Force =-0.1156437E-01[-0.121E-01,-0.110E-01]  d Ewald  =-0.1156348E-01-0.894E-06

 Conjugate gradient step on ions:
 trial-energy change:   -0.000087  1 .order   -0.000089   -0.000272    0.000094
  (g-gl).g = 0.345E-03      g.g   = 0.365E-03  gl.gl    = 0.110E-02
 g(Force)  = 0.365E-03   g(Stress)= 0.000E+00 ortho     = 0.179E-04
 gamma     =   0.31387
 trial     =   0.73531
 opt step  =   0.54690  (harmonic =   0.54690) maximal distance =0.00039917
 next E    = -2409.329928   (d E  =  -0.00010)

 reached required accuracy - stopping structural energy minimisation
 writing wavefunctions

 total charge

[...]

 magnetization (x)

# of ion       s       p       d       tot
    1       -0.008   0.077   0.000   0.069
    2        0.000   0.002   0.000   0.002
    3        0.000   0.001   0.000   0.001
    4        0.000   0.002   0.000   0.002
    5        0.000   0.001   0.000   0.001
    6        0.000   0.001   0.000   0.001
    7        0.000   0.002   0.000   0.002
    8       -0.000   0.000   0.000   0.000
    9        0.000   0.002   0.000   0.002
   10       -0.000   0.000   0.000   0.000
   11        0.000   0.002   0.000   0.002
   12        0.000   0.001   0.000   0.001
   13        0.000   0.001   0.000   0.001
   14        0.000   0.004   0.000   0.004
   15        0.000   0.003   0.000   0.003
   16        0.005   0.083   0.000   0.088
   17       -0.000   0.001   0.000   0.001
   18        0.002   0.017   0.000   0.019
   19       -0.000   0.006   0.000   0.006
   20       -0.000   0.000   0.000   0.000
   21        0.000   0.002   0.000   0.002
   22       -0.000   0.000   0.000   0.000
   23       -0.000   0.000   0.000   0.000
   24        0.001   0.013   0.000   0.015
   25       -0.001   0.007   0.000   0.006
   26       -0.000   0.000   0.000   0.000
   27       -0.000  -0.000   0.000  -0.001
   28       -0.001   0.002   0.000   0.002
   29        0.000   0.001   0.000   0.001
   30        0.000   0.001   0.000   0.001
   31        0.001   0.013   0.000   0.014
   32        0.000   0.002   0.000   0.002
   33        0.000   0.001   0.000   0.001
   34        0.000   0.002   0.000   0.002
   35        0.001   0.012   0.000   0.014
   36        0.000   0.005   0.000   0.006
   37       -0.000   0.003   0.000   0.003
   38        0.000   0.001   0.000   0.001
   39        0.000   0.001   0.000   0.001
   40        0.000   0.003   0.000   0.003
   41       -0.000   0.001   0.000   0.001
   42        0.000   0.001   0.000   0.001
   43        0.000  -0.000   0.000   0.000
   44        0.000   0.004   0.000   0.004
   45        0.000   0.001   0.000   0.001
   46       -0.000   0.000   0.000   0.000
   47        0.001   0.010   0.000   0.011
   48        0.001   0.006   0.000   0.007
   49       -0.000   0.001   0.000   0.001
   50        0.000   0.004   0.000   0.004
   51        0.000   0.001   0.000   0.001
   52       -0.000   0.000   0.000   0.000
   53       -0.000   0.003   0.000   0.002
   54       -0.000   0.000   0.000   0.000
   55        0.000   0.001   0.000   0.001
   56        0.000   0.002   0.000   0.003
   57        0.000   0.001   0.000   0.001
   58       -0.000   0.000   0.000   0.000
   59        0.000   0.001   0.000   0.001
   60        0.000   0.004   0.000   0.004
[...]
  201       -0.000  -0.000   0.000  -0.001
  202       -0.000   0.000   0.000   0.000
  203       -0.001   0.002   0.000   0.002
  204        0.001   0.013   0.000   0.015
  205       -0.000   0.000   0.000   0.000
  206       -0.001   0.007   0.000   0.006
  207        0.000   0.001   0.000   0.001
  208        0.000   0.002   0.000   0.002
  209        0.000   0.001   0.000   0.001
  210        0.002   0.017   0.000   0.019
  211       -0.000   0.001   0.000   0.001
  212       -0.000   0.006   0.000   0.006
  213        0.000   0.003   0.000   0.003
  214        0.000   0.004   0.000   0.004
  215        0.005   0.083   0.000   0.088
tot          0.078   1.316   0.000   1.394