 vasp.5.4.4.18Apr17-6-g9f103f2a35 (build Jun 14 2024 12:30:39) gamma-only
 executed on NVIDIA22.7_CrayMPICH date 2025.05.06  13:57:26

 INCAR:
 POTCAR:   PAW_PBE Si 05Jan2001
 POTCAR:   PAW_PBE C 08Apr2002
 POTCAR:   PAW_PBE Si 05Jan2001
   VRHFIN =Si: s2p2

   TITEL  = PAW_PBE Si 05Jan2001
   POMASS =   28.085; ZVAL   =    4.000    mass and valenz
   ENMAX  =  245.345; ENMIN  =  184.009 eV
   QCUT   =   -4.246; QGAM   =    8.493    optimization parameters

   Description
     l     E      TYP  RCUT    TYP  RCUT
     0   .000     23  1.900
     0   .000     23  1.900
     1   .000     23  1.900
     1   .000     23  1.900
     2   .000      7  1.900

 POTCAR:   PAW_PBE C 08Apr2002
   VRHFIN =C: s2p2

   TITEL  = PAW_PBE C 08Apr2002
   POMASS =   12.011; ZVAL   =    4.000    mass and valenz
   ENMAX  =  400.000; ENMIN  =  300.000 eV
   QCUT   =   -5.516; QGAM   =   11.032    optimization parameters

   Description
     l     E      TYP  RCUT    TYP  RCUT
     0   .000     23  1.200
     0   .000     23  1.200
     1   .000     23  1.500
     1  2.500     23  1.500
     2   .000      7  1.500

 Optimization of the real space projectors (new method)

 maximal supplied QI-value         = 19.84
 optimisation between [QCUT,QGAM] = [ 10.12, 20.44] = [ 28.68,116.96] Ry
 Optimized for a Real-space Cutoff    1.38 Angstroem

   l    n(q)    QCUT    max X(q) W(low)/X(q) W(high)/X(q)  e(spline)
   0      8    10.119     8.708    0.16E-04    0.67E-05    0.60E-08
   0      8    10.119   106.241    0.56E-04    0.11E-03    0.54E-07
   1      8    10.119     5.901    0.16E-04    0.16E-05    0.22E-07
   1      8    10.119    73.241    0.22E-03    0.17E-03    0.18E-06
 Optimization of the real space projectors (new method)

 maximal supplied QI-value         = 25.13
 optimisation between [QCUT,QGAM] = [ 10.05, 20.36] = [ 28.30,116.06] Ry
 Optimized for a Real-space Cutoff    1.38 Angstroem

   l    n(q)    QCUT    max X(q) W(low)/X(q) W(high)/X(q)  e(spline)
   0      8    10.053     5.582    0.33E-04    0.15E-04    0.75E-07
   0      8    10.053    69.432    0.23E-03    0.38E-03    0.25E-06
   1      8    10.053     2.780    0.76E-04    0.11E-03    0.15E-06
   1      8    10.053     4.549    0.19E-03    0.19E-03    0.27E-06
 PAW_PBE Si 05Jan2001                   :
 PAW_PBE C 08Apr2002                    :

 POSCAR: Si1 C214
  positions in direct lattice
  velocities in cartesian coordinates
 exchange correlation table for  LEXCH =        8
   RHO(1)=    0.500       N(1)  =     2000
   RHO(2)=  100.500       N(2)  =     4000

 ion  position               nearest neighbor table
   1  0.500  0.500  0.500- 108 1.98 131 1.98  16 1.98  71 1.98 162 1.98 215 1.98
   2  0.041  0.041  0.875-  91 1.54 139 1.54  41 1.54 189 1.54
   3  0.042  0.042  0.208-  92 1.53 140 1.53  42 1.54 190 1.54
   4  0.042  0.042  0.542-  93 1.53 141 1.53 191 1.54  43 1.54
   5  0.041  0.375  0.876-  44 1.53 142 1.53 192 1.54  94 1.54
   6  0.043  0.375  0.209- 143 1.53  45 1.53  95 1.54 193 1.54
   7  0.042  0.375  0.542- 144 1.53 194 1.54  96 1.54  46 1.54
   8  0.041  0.708  0.875- 136 1.53  38 1.53  97 1.54 195 1.54
   9  0.042  0.709  0.208-  39 1.54 137 1.54  98 1.54 196 1.54
  10  0.041  0.709  0.542- 138 1.53 197 1.54  99 1.54  40 1.54
  11  0.375  0.041  0.876-  50 1.53 100 1.53 198 1.54 148 1.54
  12  0.375  0.043  0.209- 101 1.53  51 1.53 149 1.54 199 1.54
  13  0.375  0.042  0.542- 102 1.53 200 1.54 150 1.54  52 1.54
  14  0.375  0.375  0.876-  53 1.53 201 1.54 151 1.54 103 1.54
  15  0.377  0.377  0.211-  54 1.53 104 1.54 152 1.54 202 1.55
  16  0.374  0.374  0.552- 105 1.51 153 1.51 203 1.54   1 1.98
  17  0.374  0.708  0.875- 204 1.53  47 1.54 145 1.54 106 1.54
  18  0.375  0.711  0.206- 107 1.53  48 1.53 205 1.53 146 1.54
  19  0.371  0.711  0.542- 108 1.51 206 1.52 147 1.53  49 1.55
  20  0.708  0.041  0.875-  82 1.53  32 1.53 157 1.54 207 1.54
  21  0.709  0.042  0.208-  33 1.54  83 1.54 158 1.54 208 1.54
  22  0.709  0.041  0.542-  84 1.53 209 1.54 159 1.54  34 1.54
  23  0.708  0.374  0.875- 210 1.53  35 1.54  85 1.54 160 1.54
  24  0.711  0.375  0.206- 161 1.53  36 1.53 211 1.53  86 1.54
  25  0.711  0.371  0.542- 162 1.51 212 1.52  87 1.53  37 1.55
  26  0.707  0.707  0.873-  29 1.53  88 1.54 154 1.54 213 1.55
  27  0.709  0.709  0.207-  30 1.53 214 1.54 155 1.54  89 1.54
  28  0.705  0.705  0.539- 215 1.54 156 1.54  90 1.54  31 1.56
  29  0.791  0.791  0.791-  26 1.53  75 1.53 117 1.53 163 1.54
  30  0.792  0.792  0.124-  27 1.53  73 1.53 115 1.53 164 1.54
  31  0.791  0.791  0.457-  74 1.54 116 1.54 165 1.54  28 1.56
  32  0.792  0.124  0.792-  78 1.53  20 1.53 111 1.53 166 1.54
  33  0.792  0.125  0.125-  21 1.54  76 1.54 109 1.54 167 1.54
  34  0.793  0.124  0.458-  77 1.53 110 1.53 168 1.54  22 1.54
  35  0.791  0.457  0.791-  23 1.54 114 1.54 169 1.54  81 1.56
  36  0.793  0.458  0.124-  24 1.53 112 1.53 170 1.54  79 1.54
  37  0.792  0.458  0.458- 171 1.53 113 1.53  25 1.55  80 1.55
  38  0.124  0.792  0.792- 126 1.53  57 1.53   8 1.53 172 1.54
  39  0.125  0.792  0.125-   9 1.54 124 1.54  55 1.54 173 1.54
  40  0.124  0.793  0.458- 125 1.53  56 1.53 174 1.54  10 1.54
  41  0.125  0.125  0.792-  60 1.54 120 1.54   2 1.54 175 1.54
  42  0.126  0.126  0.126-   3 1.54  58 1.54 118 1.54 176 1.54
  43  0.126  0.126  0.459-  59 1.53 119 1.53 177 1.54   4 1.54
  44  0.124  0.458  0.793- 123 1.53   5 1.53 178 1.54  63 1.54
  45  0.126  0.459  0.126-   6 1.53 121 1.53 179 1.54  61 1.54
  46  0.125  0.459  0.459- 180 1.53 122 1.53   7 1.54  62 1.54
  47  0.457  0.791  0.791-  17 1.54  66 1.54 181 1.54 135 1.56
  48  0.458  0.793  0.124-  18 1.53  64 1.53 182 1.54 133 1.54
  49  0.458  0.792  0.458- 183 1.53  65 1.53 134 1.55  19 1.55
  50  0.458  0.124  0.793-  69 1.53  11 1.53 184 1.54 129 1.54
  51  0.459  0.126  0.126-  12 1.53  67 1.53 185 1.54 127 1.54
  52  0.459  0.125  0.459- 186 1.53  68 1.53  13 1.54 128 1.54
  53  0.458  0.458  0.792- 187 1.53  14 1.53 132 1.55  72 1.55
  54  0.459  0.459  0.125- 188 1.53  15 1.53  70 1.54 130 1.54
  55  0.041  0.875  0.041-  91 1.54 190 1.54  39 1.54 136 1.54
  56  0.041  0.876  0.375-  40 1.53 191 1.53 137 1.54  92 1.54
  57  0.041  0.875  0.708- 189 1.53  38 1.53  93 1.54 138 1.54
  58  0.042  0.208  0.042-  94 1.53 193 1.53  42 1.54 139 1.54
  59  0.043  0.209  0.375- 194 1.53  43 1.53  95 1.54 140 1.54
  60  0.042  0.208  0.709-  41 1.54 192 1.54  96 1.54 141 1.54
[...]
 201  0.291  0.291  0.793- 175 1.53  14 1.54 123 1.54  69 1.54
 202  0.293  0.293  0.127- 176 1.53 121 1.54  67 1.54  15 1.55
 203  0.295  0.295  0.461-  16 1.54  68 1.54 122 1.54 177 1.56
 204  0.289  0.625  0.794-  72 1.53 178 1.53  17 1.53 126 1.54
 205  0.292  0.626  0.125-  18 1.53 179 1.54 124 1.54  70 1.54
 206  0.289  0.629  0.458-  71 1.51  19 1.52 125 1.53 180 1.55
 207  0.625  0.957  0.791- 129 1.53 181 1.53  75 1.54  20 1.54
 208  0.625  0.959  0.124- 182 1.53 127 1.53  21 1.54  73 1.54
 209  0.625  0.958  0.458- 128 1.53  22 1.54  74 1.54 183 1.54
 210  0.625  0.289  0.794- 132 1.53 184 1.53  23 1.53  78 1.54
 211  0.626  0.292  0.125-  24 1.53 185 1.54  76 1.54 130 1.54
 212  0.629  0.289  0.458- 131 1.51  25 1.52  77 1.53 186 1.55
 213  0.623  0.623  0.789- 187 1.53 135 1.54  81 1.54  26 1.55
 214  0.625  0.625  0.124- 188 1.53  27 1.54 133 1.54  79 1.54
 215  0.626  0.626  0.448-  80 1.51 134 1.51  28 1.54   1 1.98

IMPORTANT INFORMATION: All symmetrisations will be switched off!
NOSYMM: (Re-)initialisation of all symmetry stuff for point group C_1.

 KPOINTS: pymatgen v1.1 with grid density = 2210 /

Automatic generation of k-mesh.
Space group operators:
 irot       det(A)        alpha          n_x          n_y          n_z        tau_x        tau_y        tau_z
    1     1.000000     0.000001     1.000000     0.000000     0.000000     0.000000     0.000000     0.000000

 Subroutine IBZKPT returns following result:

 Found      1 irreducible k-points:

 Following reciprocal coordinates:
            Coordinates               Weight
  0.000000  0.000000  0.000000      1.000000

 Following cartesian coordinates:
            Coordinates               Weight
  0.000000  0.000000  0.000000      1.000000

 Subroutine IBZKPT_HF returns following result:

 Found      1 k-points in 1st BZ
 the following      1 k-points will be used (e.g. in the exchange kernel)
 Following reciprocal coordinates:   # in IRBZ
  0.000000  0.000000  0.000000    1.00000000   1 t-inv F

 SYSTEM =  unknown system
 POSCAR =  Si1 C214

 Startparameter for this run:
   NWRITE =      2    write-flag & timer
   PREC   = accura    normal or accurate (medium, high low for compatibility)
   ISTART =      1    job   : 0-new  1-cont  2-samecut
   ICHARG =      2    charge: 1-file 2-atom 10-const
   ISPIN  =      2    spin polarized calculation?
   LNONCOLLINEAR =      F non collinear calculations
   LSORBIT =      F    spin-orbit coupling
   INIWAV =      1    electr: 0-lowe 1-rand  2-diag
   LASPH  =      F    aspherical Exc in radial PAW
   METAGGA=      F    non-selfconsistent MetaGGA calc.

 Electronic Relaxation 1
   ENCUT  =  400.0 eV  29.40 Ry    5.42 a.u.  17.36 17.36 17.36*2*pi/ulx,y,z
   ENINI  =  400.0     initial cutoff
   ENAUG  =  644.9 eV  augmentation charge cutoff
   NELM   =    100;   NELMIN=  2; NELMDL=  0     # of ELM steps
   EDIFF  = 0.1E-04   stopping-criterion for ELM
   LREAL  =      T    real-space projection
   NLSPLINE    = F    spline interpolate recip. space projectors
   LCOMPAT=      F    compatible to vasp.4.4
   GGA_COMPAT  = T    GGA compatible to vasp.4.4-vasp.4.6
   LMAXPAW     = -100 max onsite density
   LMAXMIX     =    2 max onsite mixed and CHGCAR
   VOSKOWN=      0    Vosko Wilk Nusair interpolation
   ROPT   =   -0.00025  -0.00025
 Ionic relaxation
   EDIFFG = -.1E-01   stopping-criterion for IOM
   NSW    =     99    number of steps for IOM
   NBLOCK =      1;   KBLOCK =     99    inner block; outer block
   IBRION =      1    ionic relax: 0-MD 1-quasi-New 2-CG
   NFREE  =      0    steps in history (QN), initial steepest desc. (CG)
   ISIF   =      2    stress and relaxation
   IWAVPR =     11    prediction:  0-non 1-charg 2-wave 3-comb
   ISYM   =      0    0-nonsym 1-usesym 2-fastsym
   LCORR  =      T    Harris-Foulkes like correction to forces

   POTIM  = 0.5000    time-step for ionic-motion
   TEIN   =    0.0    initial temperature
   TEBEG  =    0.0;   TEEND  =   0.0 temperature during run
   SMASS  =  -3.00    Nose mass-parameter (am)
   estimated Nose-frequenzy (Omega)   =  0.10E-29 period in steps =****** mass=  -0.259E-26a.u.
   SCALEE = 1.0000    scale energy and forces
   NPACO  =    256;   APACO  = 16.0  distance and # of slots for P.C.
   PSTRESS=    0.0 pullay stress

  Mass of Ions in am
   POMASS =  28.09 12.01
  Ionic Valenz
   ZVAL   =   4.00  4.00
  Atomic Wigner-Seitz radii
  virtual crystal weights
   VCA    =   1.00  1.00
   NELECT =     860.0000    total number of electrons
   NUPDOWN=       2.0000    fix difference up-down

 DOS related values:
   EMIN   =  10.00;   EMAX   =-10.00  energy-range for DOS
   EFERMI =   0.00
   ISMEAR =    -2;   SIGMA  =   0.05  broadening in eV -4-tet -1-fermi 0-gaus

 Electronic relaxation 2 (details)
[...]
   -.337E+01 -.430E+01 0.320E+01   0.346E+01 0.439E+01 -.322E+01   -.861E-01 -.893E-01 0.196E-01
   -.442E+01 -.284E+01 0.405E+01   0.441E+01 0.285E+01 -.414E+01   0.939E-02 -.439E-02 0.830E-01
   -.393E+01 -.461E+01 -.206E+02   0.430E+01 0.432E+01 0.209E+02   -.368E+00 0.264E+00 -.283E+00
   -.443E+02 -.386E+02 0.470E+02   0.480E+02 0.426E+02 -.511E+02   -.351E+01 -.385E+01 0.384E+01
   -.655E+01 0.291E+01 0.478E+01   0.659E+01 -.294E+01 -.504E+01   -.317E-01 0.356E-01 0.248E+00
   -.272E+01 0.652E+01 -.833E+01   0.274E+01 -.640E+01 0.824E+01   -.164E-01 -.126E+00 0.985E-01
   -.247E+02 0.200E+02 0.668E+01   0.251E+02 -.201E+02 -.613E+01   -.378E+00 0.678E-01 -.518E+00
   0.322E+01 0.940E+00 0.331E+01   -.328E+01 -.102E+01 -.334E+01   0.547E-01 0.819E-01 0.279E-01
   0.318E+01 -.795E+00 -.231E+01   -.325E+01 0.828E+00 0.237E+01   0.703E-01 -.303E-01 -.603E-01
   0.459E+01 -.787E+00 -.434E-01   -.464E+01 0.750E+00 -.421E-02   0.522E-01 0.393E-01 0.475E-01
   0.387E+01 -.582E+01 0.559E+01   -.396E+01 0.587E+01 -.550E+01   0.890E-01 -.460E-01 -.891E-01
   0.585E+01 0.454E+00 -.601E+01   -.611E+01 -.147E+00 0.624E+01   0.235E+00 -.293E+00 -.213E+00
   0.207E+02 -.224E+02 0.542E+01   -.205E+02 0.220E+02 -.596E+01   -.185E+00 0.416E+00 0.521E+00
   0.608E+01 0.584E+01 0.903E+01   -.615E+01 -.588E+01 -.916E+01   0.782E-01 0.478E-01 0.138E+00
   0.608E+01 0.426E+01 -.656E+01   -.606E+01 -.436E+01 0.680E+01   -.211E-01 0.983E-01 -.222E+00
   0.232E+02 0.213E+02 -.435E+01   -.240E+02 -.218E+02 0.404E+01   0.778E+00 0.507E+00 0.306E+00
   0.488E+01 0.427E+01 0.478E+01   -.495E+01 -.425E+01 -.484E+01   0.676E-01 -.109E-01 0.666E-01
   0.175E+01 0.884E+00 -.577E+00   -.181E+01 -.922E+00 0.632E+00   0.627E-01 0.360E-01 -.462E-01
   0.899E+01 0.795E+01 -.762E+01   -.937E+01 -.831E+01 0.798E+01   0.364E+00 0.346E+00 -.342E+00
   0.206E+01 -.913E+00 0.193E+01   -.204E+01 0.826E+00 -.191E+01   -.194E-01 0.871E-01 -.189E-01
   0.152E+01 -.159E+01 -.179E+01   -.153E+01 0.161E+01 0.186E+01   0.109E-01 -.219E-01 -.695E-01
   0.460E+01 -.240E+01 -.318E+01   -.470E+01 0.239E+01 0.308E+01   0.892E-01 0.157E-01 0.920E-01
   0.993E+01 -.786E+01 0.975E+01   -.988E+01 0.788E+01 -.972E+01   -.493E-01 -.698E-02 -.339E-01
   0.378E+01 -.320E+01 -.134E+01   -.386E+01 0.312E+01 0.151E+01   0.710E-01 0.806E-01 -.156E+00
   0.238E+02 -.620E+01 -.820E+01   -.242E+02 0.660E+01 0.795E+01   0.373E+00 -.379E+00 0.243E+00
   -.653E+00 0.890E+00 0.164E+01   0.709E+00 -.927E+00 -.171E+01   -.469E-01 0.360E-01 0.628E-01
   -.236E+01 0.992E+00 -.228E+01   0.238E+01 -.956E+00 0.231E+01   -.183E-01 -.357E-01 -.263E-01
   -.303E+01 0.398E+01 -.250E+01   0.295E+01 -.390E+01 0.262E+01   0.852E-01 -.809E-01 -.116E+00
   -.189E+01 -.160E+01 0.142E+01   0.197E+01 0.163E+01 -.143E+01   -.685E-01 -.262E-01 0.954E-02
   -.372E+01 -.336E+01 -.366E+01   0.378E+01 0.341E+01 0.372E+01   -.614E-01 -.465E-01 -.585E-01
   -.524E+01 -.447E+01 -.285E+00   0.534E+01 0.457E+01 0.379E+00   -.103E+00 -.985E-01 -.916E-01
   -.146E+01 -.322E+01 0.361E+01   0.163E+01 0.315E+01 -.370E+01   -.151E+00 0.737E-01 0.865E-01
   -.543E+01 -.322E+00 -.527E+01   0.534E+01 0.207E+00 0.519E+01   0.830E-01 0.107E+00 0.726E-01
   -.113E+02 0.505E+00 0.169E+01   0.114E+02 -.501E+00 -.166E+01   -.937E-01 -.761E-02 -.369E-01
   -.765E+01 0.797E+01 0.885E+01   0.803E+01 -.833E+01 -.924E+01   -.356E+00 0.353E+00 0.376E+00
   -.247E+01 0.406E+01 -.312E+01   0.259E+01 -.397E+01 0.301E+01   -.121E+00 -.883E-01 0.109E+00
   -.627E+01 0.238E+02 -.622E+01   0.645E+01 -.241E+02 0.642E+01   -.167E+00 0.365E+00 -.192E+00
   -.317E+01 -.259E+01 0.454E+01   0.308E+01 0.255E+01 -.464E+01   0.891E-01 0.389E-01 0.962E-01
   -.341E+00 -.451E+01 -.513E+01   0.450E+00 0.462E+01 0.525E+01   -.106E+00 -.107E+00 -.121E+00
   0.818E+00 -.110E+02 0.804E+00   -.902E+00 0.111E+02 -.887E+00   0.755E-01 -.101E+00 0.746E-01
   -.817E+01 -.609E+01 0.236E+02   0.792E+01 0.651E+01 -.240E+02   0.248E+00 -.403E+00 0.353E+00
   0.168E+01 0.489E+00 -.113E+02   -.166E+01 -.501E+00 0.114E+02   -.205E-01 0.814E-02 -.893E-01
   0.193E+00 0.133E+01 0.175E+00   -.236E+00 -.131E+01 -.219E+00   0.429E-01 -.205E-01 0.435E-01
   -.979E+00 0.956E+00 0.371E-01   0.927E+00 -.919E+00 -.358E-01   0.511E-01 -.390E-01 0.361E-03
   0.113E+01 0.274E+01 0.307E+01   -.112E+01 -.278E+01 -.310E+01   -.199E-02 0.463E-01 0.306E-01
   -.114E+01 -.191E+00 -.110E+01   0.116E+01 0.200E+00 0.112E+01   -.134E-01 -.103E-01 -.162E-01
   -.436E+01 -.356E+01 0.122E+00   0.442E+01 0.356E+01 -.107E+00   -.606E-01 -.635E-02 -.169E-01
   -.442E+00 -.167E+01 0.292E+01   0.538E+00 0.169E+01 -.303E+01   -.909E-01 -.160E-01 0.104E+00
[...]
   -.606E+01 -.585E+01 -.902E+01   0.614E+01 0.590E+01 0.916E+01   -.772E-01 -.463E-01 -.137E+00
   -.232E+02 -.213E+02 0.438E+01   0.240E+02 0.218E+02 -.407E+01   -.779E+00 -.511E+00 -.309E+00
   -.584E+01 -.460E+00 0.604E+01   0.610E+01 0.149E+00 -.627E+01   -.238E+00 0.297E+00 0.215E+00
   -.386E+01 0.582E+01 -.558E+01   0.395E+01 -.587E+01 0.549E+01   -.888E-01 0.460E-01 0.892E-01
   -.207E+02 0.224E+02 -.544E+01   0.205E+02 -.219E+02 0.599E+01   0.187E+00 -.424E+00 -.528E+00
   -.408E-01 0.393E+01 0.432E+01   0.386E-01 -.402E+01 -.439E+01   0.402E-02 0.967E-01 0.765E-01
   0.329E+00 0.456E+00 -.115E+01   -.321E+00 -.438E+00 0.116E+01   -.891E-02 -.182E-01 0.145E-02
   0.338E+01 0.431E+01 -.322E+01   -.347E+01 -.440E+01 0.324E+01   0.866E-01 0.898E-01 -.200E-01
   0.272E+01 -.650E+01 0.830E+01   -.274E+01 0.638E+01 -.821E+01   0.170E-01 0.123E+00 -.102E+00
   0.656E+01 -.291E+01 -.476E+01   -.660E+01 0.294E+01 0.502E+01   0.316E-01 -.345E-01 -.245E+00
   0.247E+02 -.199E+02 -.677E+01   -.251E+02 0.200E+02 0.621E+01   0.371E+00 -.546E-01 0.525E+00
   0.392E+01 0.458E+01 0.206E+02   -.430E+01 -.429E+01 -.209E+02   0.370E+00 -.264E+00 0.282E+00
   0.442E+01 0.283E+01 -.403E+01   -.441E+01 -.283E+01 0.412E+01   -.587E-02 0.244E-02 -.824E-01
   0.443E+02 0.385E+02 -.470E+02   -.480E+02 -.425E+02 0.511E+02   0.353E+01 0.388E+01 -.386E+01
   0.143E-01 -.377E-01 -.160E-01   -.227E-12 -.284E-12 -.696E-12   0.525E-01 -.578E-02 0.156E-01

 POSITION                                       TOTAL-FORCE (eV/Angst)
      5.32338      5.32273      5.32324         0.000197     -0.000129      0.000134
      0.44138      0.44113      9.31641        -0.000305      0.000698      0.000114
      0.44821      0.44894      2.21886        -0.000241      0.000194      0.000309
      0.44460      0.44439      5.76809        -0.000172     -0.001040      0.000226
      0.43978      3.99096      9.32398        -0.001145     -0.000191      0.000550
      0.45499      3.99591      2.22449        -0.000350     -0.000947     -0.000652
      0.44621      3.99197      5.77017         0.000779     -0.000655      0.000395
      0.43376      7.54036      9.31212        -0.000089      0.000444     -0.000087
      0.44104      7.54626      2.21174        -0.001109      0.000021     -0.001011
      0.43543      7.54191      5.76571        -0.000349      0.000268      0.000038
      3.98909      0.44026      9.32346        -0.000034      0.000215     -0.000435
      3.99650      0.45625      2.22456         0.000818      0.000386      0.000721
      3.99322      0.44676      5.77004         0.000100      0.000177      0.000523
      3.98796      3.98873      9.32377        -0.000193      0.000226      0.000119
      4.01448      4.01008      2.24020        -0.001134     -0.000363      0.000255
      3.97169      4.00323      5.86760        -0.001851      0.000879     -0.001656
      3.98249      7.54098      9.31682        -0.000281      0.000699      0.000928
      3.98599      7.56345      2.19746        -0.000721      0.000000      0.000286
      3.95714      7.56473      5.77348        -0.000027      0.000716      0.000725
      7.53943      0.43310      9.31207        -0.000265      0.000803      0.000234
      7.54522      0.44243      2.21341         0.001017      0.000348      0.000219
      7.54197      0.43594      5.76391        -0.000061      0.000340      0.000920
      7.53958      3.98436      9.31758         0.000151     -0.000731     -0.000806
      7.56700      3.99059      2.19406        -0.000061      0.000839      0.000227
      7.56632      3.95700      5.75967         0.000380      0.001392     -0.000033
      7.52888      7.52926      9.29708         0.000577     -0.000994     -0.000393
      7.54754      7.54545      2.20489         0.000617     -0.000420     -0.000218
      7.50661      7.50587      5.73515        -0.001424     -0.000249     -0.000038
      8.41663      8.41727      8.41661        -0.000505      0.000423     -0.000271
      8.42951      8.42946      1.32022        -0.001083      0.000546      0.000620
      8.42026      8.41874      4.86830         0.000978     -0.000097     -0.000122
      8.42986      1.31894      8.42978         0.000502     -0.000949      0.000593
      8.43397      1.32959      1.32999         0.000118      0.000311     -0.000755
      8.44046      1.31802      4.87801         0.000245     -0.000550      0.000044
      8.42446      4.86619      8.42412        -0.000464      0.000642     -0.000426
      8.44301      4.87770      1.31681        -0.000423      0.000549      0.000327
      8.43576      4.87581      4.86875        -0.000164     -0.000448      0.000056
      1.32021      8.42944      8.42948         0.000600      0.000402     -0.001042
      1.32991      8.43373      1.33018        -0.000033      0.000256      0.000063
      1.31791      8.44114      4.88048         0.000022      0.000111     -0.001557
      1.32990      1.32963      8.43393        -0.000721      0.000309      0.000265
      1.33795      1.33730      1.33794        -0.000488      0.000876     -0.000251
      1.33861      1.33911      4.88600        -0.000224     -0.000784      0.000266
      1.31639      4.87770      8.44315         0.000204      0.000478     -0.000199
      1.33787      4.88341      1.33804         0.000910      0.000346      0.000749
      1.33554      4.88637      4.88744         0.000027      0.000118     -0.000215
      4.86824      8.41821      8.41946        -0.000165     -0.000060      0.000967
      4.88048      8.44060      1.31827        -0.001428      0.000301     -0.000070
      4.87571      8.42955      4.87582         0.000475     -0.000617      0.000531
      4.87809      1.31797      8.44028         0.000026     -0.000482      0.000339
      4.88613      1.33916      1.33893         0.000052     -0.000715     -0.000429
      4.88594      1.33629      4.88580        -0.000652      0.000995     -0.000638
      4.86920      4.87619      8.43556         0.000042     -0.000452     -0.000039
      4.88737      4.88616      1.33561        -0.000225      0.000497     -0.000209
      0.44079      9.31735      0.44073        -0.000029     -0.000995      0.000078
      0.44030      9.32333      3.98960        -0.000039      0.000137      0.000811
      0.43383      9.31231      7.53972        -0.000399      0.000200     -0.000154
      0.44833      2.21907      0.44845        -0.000134     -0.000103      0.000059
      0.45565      2.22359      3.99660         0.000225      0.000278     -0.000308
      0.44291      2.21277      7.54466         0.000158      0.000141     -0.001089
[...]
      3.09855      3.10062      8.44118        -0.000669      0.000398      0.000098
      3.11716      3.11686      1.34900        -0.000648      0.001215      0.000528
      3.13938      3.14007      4.91087         0.001291      0.000251     -0.000181
      3.07895      6.65530      8.45192        -0.000124     -0.001002     -0.000136
      3.10656      6.66181      1.32845        -0.000150      0.000813      0.000851
      3.07983      6.68899      4.88610         0.000082     -0.001499      0.000118
      6.64952     10.18979      8.42149        -0.000868     -0.000459     -0.000717
      6.65694     10.20578      1.32267        -0.000105     -0.000243      0.000642
      6.65283     10.19930      4.87603        -0.000180     -0.000160     -0.000566
      6.66011      3.08263      8.44860         0.000684      0.000419     -0.000328
      6.66342      3.10504      1.32915         0.000154     -0.000680     -0.001126
      6.68911      3.08128      4.87239        -0.000077     -0.000384     -0.001633
      6.63157      6.63590      8.40592         0.000840      0.000303     -0.000079
      6.65804      6.65735      1.32236         0.000047     -0.000247      0.000135
      6.67440      6.64237      4.77835         0.000691     -0.000901      0.001638
    total drift:                                0.069282     -0.043754      0.000531

  FREE ENERGIE OF THE ION-ELECTRON SYSTEM (eV)
  free  energy   TOTEN  =     -2409.47383299 eV

  energy  without entropy=    -2409.47383299  energy(sigma->0) =    -2409.47383299

 d Force = 0.1050281E-03[-0.717E-05, 0.217E-03]  d Energy = 0.1819328E-03-0.769E-04
 d Force =-0.2467918E-01[-0.251E-01,-0.243E-01]  d Ewald  =-0.2467915E-01-0.369E-07

 Quasi-Newton relaxation of ions (Broydens 2nd method)
  g(Force)  = 0.109E-04   g(Stress)= 0.000E+00

 retain information from N=  1 steps
 eigenvalues of (default step * inverse Hessian matrix)
  average eigenvalue of G=   0.2283
 eigenvalue spectrum of G is  0.2283

 reached required accuracy - stopping structural energy minimisation
 writing wavefunctions

 total charge

[...]

 magnetization (x)

# of ion       s       p       d       tot
    1       -0.015   0.063   0.000   0.048
    2        0.000   0.001   0.000   0.001
    3        0.000   0.001   0.000   0.001
    4        0.000   0.003   0.000   0.003
    5        0.000   0.001   0.000   0.001
    6       -0.000   0.000   0.000   0.000
    7        0.000   0.002   0.000   0.002
    8        0.000   0.001   0.000   0.001
    9        0.000   0.006   0.000   0.007
   10       -0.000   0.000   0.000   0.000
   11        0.000   0.002   0.000   0.002
   12        0.000   0.002   0.000   0.002
   13        0.000   0.000   0.000   0.000
   14        0.000   0.002   0.000   0.002
   15        0.000   0.007   0.000   0.008
   16        0.005   0.051   0.000   0.055
   17       -0.000   0.000   0.000  -0.000
   18        0.002   0.023   0.000   0.026
   19        0.001   0.019   0.000   0.019
   20       -0.000   0.001   0.000   0.001
   21        0.000   0.002   0.000   0.002
   22       -0.000   0.001   0.000   0.001
   23       -0.000   0.001   0.000   0.001
   24        0.001   0.005   0.000   0.006
   25       -0.000   0.011   0.000   0.010
   26       -0.000   0.000   0.000  -0.000
   27       -0.000   0.000   0.000   0.000
   28       -0.001   0.002   0.000   0.001
   29        0.000   0.001   0.000   0.001
   30        0.000   0.001   0.000   0.001
   31        0.001   0.008   0.000   0.008
   32        0.000   0.003   0.000   0.003
   33        0.000   0.002   0.000   0.002
   34        0.000   0.006   0.000   0.006
   35        0.002   0.025   0.000   0.027
   36        0.000   0.001   0.000   0.001
   37        0.000   0.004   0.000   0.004
   38        0.000   0.001   0.000   0.001
   39       -0.000   0.001   0.000   0.001
   40        0.000   0.006   0.000   0.006
   41        0.000   0.001   0.000   0.001
   42        0.000   0.002   0.000   0.002
   43       -0.000   0.000   0.000   0.000
   44        0.000   0.000   0.000   0.000
   45        0.000   0.001   0.000   0.001
   46       -0.000   0.000   0.000   0.000
   47        0.001   0.006   0.000   0.007
   48        0.001   0.007   0.000   0.008
   49       -0.000   0.001   0.000   0.001
   50        0.000   0.006   0.000   0.007
   51       -0.000   0.001   0.000   0.001
   52        0.000   0.001   0.000   0.001
   53        0.000   0.004   0.000   0.004
   54       -0.000   0.001   0.000   0.000
   55        0.000   0.003   0.000   0.003
   56        0.000   0.004   0.000   0.004
   57       -0.000   0.000   0.000   0.000
   58       -0.000   0.001   0.000   0.001
   59        0.000   0.001   0.000   0.001
   60        0.000   0.002   0.000   0.002
[...]
  201       -0.000   0.000   0.000   0.000
  202       -0.000   0.000   0.000  -0.000
  203       -0.001   0.002   0.000   0.001
  204        0.001   0.005   0.000   0.006
  205       -0.000   0.001   0.000   0.001
  206       -0.000   0.011   0.000   0.010
  207        0.000   0.002   0.000   0.002
  208        0.000   0.002   0.000   0.002
  209        0.000   0.000   0.000   0.000
  210        0.002   0.023   0.000   0.026
  211       -0.000   0.000   0.000  -0.000
  212        0.001   0.018   0.000   0.019
  213        0.000   0.007   0.000   0.007
  214       -0.000   0.002   0.000   0.002
  215        0.005   0.051   0.000   0.056
tot          0.068   1.334   0.000   1.402