 vasp.6.4.3 19Mar24 (build Jun 20 2024 15:24:57) gamma-only
 executed on    LinuxNV_CrayMPICH date 2025.04.26  09:17:38
 OpenACC runtime initialized ...   16 GPUs detected

 INCAR:
   ALGO = N
   ISTART = 1
   EDIFF = 1e-5
   EDIFFG = -0.01
   ENCUT = 400
   IBRION = 2
   ICHARG = 2
   ISIF = 2
   ISMEAR = 0
   ISPIN = 2
   LORBIT = 11
   LREAL = Auto
   LWAVE = True
   MAGMOM = 215*0.6
   NUPDOWN = 2
   NELM = 100
   NSW = 0
   PREC = Accurate
   SIGMA = 0.05
   NBANDS = 450

 POTCAR:   PAW_PBE Si 05Jan2001
 POTCAR:   PAW_PBE C 08Apr2002
 POTCAR:   PAW_PBE Si 05Jan2001
   VRHFIN =Si: s2p2

   TITEL  = PAW_PBE Si 05Jan2001
   POMASS =   28.085; ZVAL   =    4.000    mass and valenz
   ENMAX  =  245.345; ENMIN  =  184.009 eV
   QCUT   =   -4.246; QGAM   =    8.493    optimization parameters

   Description
     l     E      TYP  RCUT    TYP  RCUT
     0   .000     23  1.900
     0   .000     23  1.900
     1   .000     23  1.900
     1   .000     23  1.900
     2   .000      7  1.900

 POTCAR:   PAW_PBE C 08Apr2002
   VRHFIN =C: s2p2

   TITEL  = PAW_PBE C 08Apr2002
   POMASS =   12.011; ZVAL   =    4.000    mass and valenz
   ENMAX  =  400.000; ENMIN  =  300.000 eV
   QCUT   =   -5.516; QGAM   =   11.032    optimization parameters

   Description
     l     E      TYP  RCUT    TYP  RCUT
     0   .000     23  1.200
     0   .000     23  1.200
     1   .000     23  1.500
     1  2.500     23  1.500
     2   .000      7  1.500

 Optimization of the real space projectors (new method)

 maximal supplied QI-value         = 19.84
 optimisation between [QCUT,QGAM] = [ 10.12, 20.44] = [ 28.68,116.96] Ry
 Optimized for a Real-space Cutoff    1.38 Angstroem

   l    n(q)    QCUT    max X(q) W(low)/X(q) W(high)/X(q)  e(spline)
   0      8    10.119     8.708    0.16E-04    0.67E-05    0.60E-08
   0      8    10.119   106.241    0.56E-04    0.11E-03    0.54E-07
   1      8    10.119     5.901    0.16E-04    0.16E-05    0.22E-07
   1      8    10.119    73.241    0.22E-03    0.17E-03    0.18E-06
 Optimization of the real space projectors (new method)

 maximal supplied QI-value         = 25.13
 optimisation between [QCUT,QGAM] = [ 10.05, 20.36] = [ 28.30,116.06] Ry
 Optimized for a Real-space Cutoff    1.38 Angstroem

   l    n(q)    QCUT    max X(q) W(low)/X(q) W(high)/X(q)  e(spline)
   0      8    10.053     5.582    0.33E-04    0.15E-04    0.75E-07
   0      8    10.053    69.432    0.23E-03    0.38E-03    0.25E-06
   1      8    10.053     2.780    0.76E-04    0.11E-03    0.15E-06
   1      8    10.053     4.549    0.19E-03    0.19E-03    0.27E-06
 PAW_PBE Si 05Jan2001                   :
 PAW_PBE C 08Apr2002                    :

 POSCAR: Si1 C214
  positions in direct lattice
  velocities in cartesian coordinates

 exchange-correlation table for PE
   RHO(1)=    0.500       N(1)  =     2000
   RHO(2)=  100.500       N(2)  =     4000

 ion  position               nearest neighbor table
   1  0.500  0.500  0.500- 108 1.98 131 1.98  16 1.98  71 1.98 162 1.98 215 1.98
   2  0.041  0.041  0.875-  91 1.54 139 1.54  41 1.54 189 1.54
   3  0.042  0.042  0.208-  92 1.53 140 1.53  42 1.54 190 1.54
   4  0.042  0.042  0.542-  93 1.53 141 1.53 191 1.54  43 1.54
   5  0.041  0.375  0.876-  44 1.53 142 1.53 192 1.54  94 1.54
   6  0.043  0.375  0.209- 143 1.53  45 1.53  95 1.54 193 1.54
   7  0.042  0.375  0.542- 144 1.53 194 1.54  96 1.54  46 1.54
   8  0.041  0.708  0.875- 136 1.53  38 1.53  97 1.54 195 1.54
   9  0.042  0.709  0.208-  39 1.54 137 1.54  98 1.54 196 1.54
  10  0.041  0.709  0.542- 138 1.53 197 1.54  99 1.54  40 1.54
  11  0.375  0.041  0.876-  50 1.53 100 1.53 198 1.54 148 1.54
  12  0.375  0.043  0.209- 101 1.53  51 1.53 149 1.54 199 1.54
  13  0.375  0.042  0.542- 102 1.53 200 1.54 150 1.54  52 1.54
  14  0.375  0.375  0.876-  53 1.53 201 1.54 151 1.54 103 1.54
  15  0.377  0.377  0.211-  54 1.53 104 1.54 152 1.54 202 1.55
  16  0.374  0.374  0.552- 105 1.51 153 1.51 203 1.54   1 1.98
  17  0.374  0.708  0.875- 204 1.53  47 1.54 145 1.54 106 1.54
  18  0.375  0.711  0.206- 107 1.53  48 1.53 205 1.53 146 1.54
  19  0.371  0.711  0.542- 108 1.51 206 1.52 147 1.53  49 1.55
  20  0.708  0.041  0.875-  82 1.53  32 1.53 157 1.54 207 1.54
  21  0.709  0.042  0.208-  33 1.54  83 1.54 158 1.54 208 1.54
  22  0.709  0.041  0.542-  84 1.53 209 1.54 159 1.54  34 1.54
  23  0.708  0.374  0.875- 210 1.53  35 1.54  85 1.54 160 1.54
  24  0.711  0.375  0.206- 161 1.53  36 1.53 211 1.53  86 1.54
  25  0.711  0.371  0.542- 162 1.51 212 1.52  87 1.53  37 1.55
  26  0.707  0.707  0.873-  29 1.53  88 1.54 154 1.54 213 1.55
  27  0.709  0.709  0.207-  30 1.53 214 1.54 155 1.54  89 1.54
  28  0.705  0.705  0.539- 215 1.54 156 1.54  90 1.54  31 1.56
  29  0.791  0.791  0.791-  26 1.53  75 1.53 117 1.53 163 1.54
  30  0.792  0.792  0.124-  27 1.53  73 1.53 115 1.53 164 1.54
  31  0.791  0.791  0.457-  74 1.54 116 1.54 165 1.54  28 1.56
  32  0.792  0.124  0.792-  78 1.53  20 1.53 111 1.53 166 1.54
  33  0.792  0.125  0.125-  21 1.54  76 1.54 109 1.54 167 1.54
  34  0.793  0.124  0.458-  77 1.53 110 1.53 168 1.54  22 1.54
  35  0.791  0.457  0.791-  23 1.54 114 1.54 169 1.54  81 1.56
  36  0.793  0.458  0.124-  24 1.53 112 1.53 170 1.54  79 1.54
  37  0.792  0.458  0.458- 171 1.53 113 1.53  25 1.55  80 1.55
  38  0.124  0.792  0.792- 126 1.53  57 1.53   8 1.53 172 1.54
  39  0.125  0.792  0.125-   9 1.54 124 1.54  55 1.54 173 1.54
  40  0.124  0.793  0.458- 125 1.53  56 1.53 174 1.54  10 1.54
  41  0.125  0.125  0.792-  60 1.54 120 1.54   2 1.54 175 1.54
  42  0.126  0.126  0.126-   3 1.54  58 1.54 118 1.54 176 1.54
  43  0.126  0.126  0.459-  59 1.53 119 1.53 177 1.54   4 1.54
  44  0.124  0.458  0.793- 123 1.53   5 1.53 178 1.54  63 1.54
  45  0.126  0.459  0.126-   6 1.53 121 1.53 179 1.54  61 1.54
  46  0.125  0.459  0.459- 180 1.53 122 1.53   7 1.54  62 1.54
  47  0.457  0.791  0.791-  17 1.54  66 1.54 181 1.54 135 1.56
  48  0.458  0.793  0.124-  18 1.53  64 1.53 182 1.54 133 1.54
  49  0.458  0.792  0.458- 183 1.53  65 1.53 134 1.55  19 1.55
  50  0.458  0.124  0.793-  69 1.53  11 1.53 184 1.54 129 1.54
  51  0.459  0.126  0.126-  12 1.53  67 1.53 185 1.54 127 1.54
  52  0.459  0.125  0.459- 186 1.53  68 1.53  13 1.54 128 1.54
  53  0.458  0.458  0.792- 187 1.53  14 1.53 132 1.55  72 1.55
  54  0.459  0.459  0.125- 188 1.53  15 1.53  70 1.54 130 1.54
  55  0.041  0.875  0.041-  91 1.54 190 1.54  39 1.54 136 1.54
  56  0.041  0.876  0.375-  40 1.53 191 1.53 137 1.54  92 1.54
  57  0.041  0.875  0.708- 189 1.53  38 1.53  93 1.54 138 1.54
  58  0.042  0.208  0.042-  94 1.53 193 1.53  42 1.54 139 1.54
  59  0.043  0.209  0.375- 194 1.53  43 1.53  95 1.54 140 1.54
  60  0.042  0.208  0.709-  41 1.54 192 1.54  96 1.54 141 1.54
[...]
 201  0.291  0.291  0.793- 175 1.53  14 1.54 123 1.54  69 1.54
 202  0.293  0.293  0.127- 176 1.53 121 1.54  67 1.54  15 1.55
 203  0.295  0.295  0.461-  16 1.54  68 1.54 122 1.54 177 1.56
 204  0.289  0.625  0.794-  72 1.53 178 1.53  17 1.53 126 1.54
 205  0.292  0.626  0.125-  18 1.53 179 1.54 124 1.54  70 1.54
 206  0.289  0.629  0.458-  71 1.51  19 1.52 125 1.53 180 1.55
 207  0.625  0.957  0.791- 129 1.53 181 1.53  75 1.54  20 1.54
 208  0.625  0.959  0.124- 182 1.53 127 1.53  21 1.54  73 1.54
 209  0.625  0.958  0.458- 128 1.53  22 1.54  74 1.54 183 1.54
 210  0.625  0.289  0.794- 132 1.53 184 1.53  23 1.53  78 1.54
 211  0.626  0.292  0.125-  24 1.53 185 1.54  76 1.54 130 1.54
 212  0.629  0.289  0.458- 131 1.51  25 1.52  77 1.53 186 1.55
 213  0.623  0.623  0.789- 187 1.53 135 1.54  81 1.54  26 1.55
 214  0.625  0.625  0.124- 188 1.53  27 1.54 133 1.54  79 1.54
 215  0.626  0.626  0.448-  80 1.51 134 1.51  28 1.54   1 1.98

  LATTYP: Found a simple cubic cell.
 ALAT       =    10.6460610000

  Lattice vectors:

 A1 = (  10.6460610000,   0.0000000000,   0.0000000000)
 A2 = (   0.0000000000,  10.6460610000,   0.0000000000)
 A3 = (   0.0000000000,   0.0000000000,  10.6460610000)

Analysis of symmetry for initial positions (statically):
 Subroutine PRICEL returns:
 Original cell was already a primitive cell.

 Routine SETGRP: Setting up the symmetry group for a
 simple cubic supercell.

 Subroutine GETGRP returns: Found 12 space group operations
 (whereof 12 operations were pure point group operations)
 out of a pool of 48 trial point group operations.

The static configuration has the point symmetry D_3d.

Analysis of symmetry for dynamics (positions and initial velocities):
 Subroutine PRICEL returns:
 Original cell was already a primitive cell.

[...]

The dynamic configuration has the point symmetry D_3d.

Analysis of structural, dynamic, and magnetic symmetry:
 Subroutine PRICEL returns:
 Original cell was already a primitive cell.

 Routine SETGRP: Setting up the symmetry group for a
 simple cubic supercell.

 Subroutine GETGRP returns: Found 12 space group operations
 (whereof 12 operations were pure point group operations)
 out of a pool of 48 trial point group operations.

The overall configuration has the point symmetry D_3d.

 Subroutine INISYM returns: Found 12 space group operations
 (whereof 12 operations are pure point group operations),
 and found     1 'primitive' translations

                                     Primitive cell

  volume of cell :    1206.6098

  direct lattice vectors                    reciprocal lattice vectors
    10.646061000  0.000000000  0.000000000     0.093931455  0.000000000  0.000000000
     0.000000000 10.646061000  0.000000000     0.000000000  0.093931455  0.000000000
     0.000000000  0.000000000 10.646061000     0.000000000  0.000000000  0.093931455

  length of vectors
    10.646061000 10.646061000 10.646061000     0.093931455  0.093931455  0.093931455

  position of ions in fractional coordinates (direct lattice)
     0.500000000  0.500000000  0.500000000
     0.041432619  0.041432619  0.875127164
     0.042136604  0.042136604  0.208398569
     0.041725648  0.041725648  0.541845276
     0.041333928  0.374763297  0.875803408
     0.042811797  0.375367797  0.208916487
     0.041879903  0.375054693  0.541967188
     0.040734755  0.708210889  0.874716310
     0.041513284  0.708763222  0.207849977
     0.040882816  0.708500325  0.541542365
     0.374763297  0.041333928  0.875803408
     0.375367797  0.042811797  0.208916487
     0.375054693  0.041879903  0.541967188
     0.374688137  0.374688137  0.875835783
     0.376925970  0.376925970  0.210628757
     0.373822646  0.373822646  0.552107284
     0.374154462  0.708348301  0.875227476
     0.374587421  0.710612459  0.206255404
     0.371146300  0.710902170  0.541803969
     0.708210889  0.040734755  0.874716310
     0.708763222  0.041513284  0.207849977
     0.708500325  0.040882816  0.541542365
     0.708348301  0.374154462  0.875227476
     0.710612459  0.374587421  0.206255404
     0.710902170  0.371146300  0.541803969
     0.707195975  0.707195975  0.873232460
     0.708794528  0.708794528  0.207104480
     0.705233727  0.705233727  0.539089054
     0.790602766  0.790602766  0.790602766
     0.791824366  0.791824366  0.123960810
     0.790932383  0.790932383  0.457172306
     0.791824366  0.123960810  0.791824366
     0.792200689  0.124918767  0.124918767
[...]
  312          fftbrc_mpi                            0.010320                         26   4
  313            fftbas_plan_mpi                       0.010304                       26   5
  314              map_forward                           0.006095                     28   6
  315                map_gather                            0.000332                   16   7
  316                m_alltoallv_z                         0.000421                   16   7
  317                map_scatter                           0.005152                   16   7
  318              map_backward                          0.003171                     24   6
  319                map_gather                            0.000260                   12   7
  320                m_alltoallv_z                         0.000301                   12   7
  321                map_scatter                           0.002418                   12   7
  322        m_sumb_d                              0.000135                            5   3
  323        m_max_i                               0.000012                            1   3
  324        pothar                                0.000093                            1   3
  325          m_sumb_d                              0.000016                          1   4
  326        m_bcast_d                             0.000034                            2   3
  327      set_dd_magatom                        0.000004                              1   2
  328      set_dd_paw                            0.036331                              1   2
  329        set_rsgf_all                          0.000000                            1   3
  330        rad_aug_charge                        0.000023                           26   3
  331        rad_pot                               0.032129                           26   3
  332          rad_lda_xc_spin                       0.028005                         26   4
  333          rad_gga_xc_spin                       0.003509                         26   4
  334        rad_pot_weight                        0.000045                           26   3
  335        rad_proj                              0.000104                           52   3
  336        rad_aug_proj                          0.000015                           26   3
  337        m_sumb_d                              0.003150                            7   3
  338      setwdes                               0.000003                              2   2
  339      densta                                0.017919                              1   2
  340        m_sumb_d                              0.013769                           17   3
  341        setwdes                               0.000000                            2   3

 Flat profile

 total_time                             10.123891           1
 init_acc                                2.864281           1
 lapack                                  2.089019        2829
 m_sumb_d                                1.907135       11380
 eddav                                   1.179731          16
 m_bcast_d                               1.025842        8515
 rspher_all                              0.924947          14
 redis_pw                                0.816612        7627
 fft3d                                   0.543709        8961
 m_alltoall_d                            0.454402       21021
 rad_lda_xc_spin                         0.394580         364
 acc_cufft_makeplan                      0.369588          19
 raccmu_                                 0.337746        2829
 set_charge                              0.308319          12
 sphpro_fast                             0.230647           2
 wfinit                                  0.203844           1
 map_scatter                             0.188996         466
 setdij_                                 0.163769          40
 orth1                                   0.149385        8517
 m_bcast_z                               0.123859         928
 fftwav                                  0.121892        6132
 redis_proj                              0.092886        9530
 rpromu_acc                              0.090892        2109
 choleski                                0.081396           2
 m_alltoallv_z                           0.078038         466
 racc0mu_acc                             0.077551        2829
 potlok                                  0.074900          13
 hamiltmu                                0.072950        2829
 augmentation_charge                     0.071631          12
 eccp                                    0.063556         928
 ggemm                                   0.051881        3757
 soft_charge                             0.050563          12
 w1_copy                                 0.050507        8487
 rad_gga_xc_spin                         0.049442         364
 overl_mu                                0.045816        2829
 proall                                  0.044960           1
 stufak                                  0.044612           1
 fft3d_mpi                               0.043628        3245
 overl                                   0.042986        4732
 elmin                                   0.042820           1
 acc_init_cublas                         0.042361           1
 brmix                                   0.038288          12
 setup_precond                           0.035354         928
 rpro_isp                                0.034297          13
 dfftw_execute                           0.031750         159
 acc_init_cusolver                       0.028403           1
 fftbas_plan_mpi                         0.024475         416
 newband                                 0.021950        2861
 fftext_mpi                              0.019717        2829
 map_gather                              0.019156         466
 rsp                                     0.017404           1
 vhamil                                  0.016832        2829
 kinhamil                                0.015453        2829
 setwdes                                 0.015180       13931
 apply_precond                           0.014062        1901
 inisym                                  0.011242           1
 pw_charge                               0.011001         648
 set_dd_paw                              0.010924          14
 force_and_stress                        0.010907           1
 lincom                                  0.010588          34
 depsum                                  0.010498          12
 fftwav_mpi                              0.010223        6132
 rad_pot                                 0.008584         380
 setg0                                   0.006644          14
 densta                                  0.005332          17
 m_max_i                                 0.003736          41
 broyd                                   0.003171          12
 map_backward                            0.002823         434
 orthch                                  0.002808           1
 fft_gq                                  0.002737          12
 map_forward                             0.002713         398
 posmap                                  0.002620           2
 forloc                                  0.002608           1
 fftwav_w1                               0.002560        5378
 w1_projall                              0.002240        1901
 rad_lda_xc                              0.002085          16
 brget                                   0.001870         432
 splcof                                  0.001719          42
 bandgap                                 0.001659           1
 potxc                                   0.001626           1
 strnlr                                  0.001621           1
 strelo                                  0.001411           1
 rad_proj                                0.001406         736
 pothar                                  0.001058          14
 strehar                                 0.000977           1
 brsav                                   0.000967         128
 rad_gga_xc                              0.000820          16
 forhar                                  0.000685           2
 splval                                  0.000682        5326
 rad_pot_weight                          0.000597         372
 strkin                                  0.000530           1
 fornlr                                  0.000518           1
 fewald                                  0.000499           1
 rcp                                     0.000424           1
 truncate_high_frequency_w1              0.000415        3757
 brpre                                   0.000313          24
 rad_aug_charge                          0.000304         366
 fftbrc_mpi                              0.000285         416
 chggra                                  0.000235           1
 rad_aug_proj                            0.000213         368
 phaser                                  0.000211          45
 fordep                                  0.000111           1
 brgrid                                  0.000099           1
 vectorpot                               0.000063          13
 set_dd_magatom                          0.000059          14
 crpa_reader                             0.000029           1
 acc_cufft_makeplans                     0.000021           3
 set_rsgf_all                            0.000007          14
 kpar_sync_all                           0.000000           1
 redis_pw_over_bands                     0.000000           1
 rotate_active_occupied_orbital          0.000000           1
  summed up times     26.21537113189697

 Accumulative profile

 total_time                             26.215371           1
 elmin                                  10.027667           1
 eddav                                   8.229490          16
 init_acc                                2.865171           1
 lapack                                  2.089019        2829
 m_sumb_d                                1.907135       11380
 force_and_stress                        1.260214           1
 m_bcast_d                               1.025842        8515
 redis_pw                                1.024969        7627
 rspher_all                              0.924947          14
 set_charge                              0.906352          12
 strnlr                                  0.743862           1
 hamiltmu                                0.684410        2829
 fftwav_mpi                              0.578849        6132
 fftwav                                  0.568626        6132
 fft3d                                   0.543709        8961
 set_dd_paw                              0.513604          14
 fftwav_w1                               0.502438        5378
 fft3d_mpi                               0.488839        3245
 raccmu_                                 0.461114        2829
 rad_pot                                 0.455512         380
 m_alltoall_d                            0.454402       21021
 rad_lda_xc_spin                         0.394580         364
 acc_cufft_makeplans                     0.369609           3
 acc_cufft_makeplan                      0.369588          19
 potlok                                  0.354346          13
 newband                                 0.351580        2861
 fftbrc_mpi                              0.348236         416
 fftbas_plan_mpi                         0.347952         416
 redis_proj                              0.338932        9530
 soft_charge                             0.328938          12
 wfinit                                  0.328019           1
 sphpro_fast                             0.253238           2
 fornlr                                  0.249136           1
 orthch                                  0.211325           1
 setdij_                                 0.200051          40
 map_scatter                             0.188996         466
 rpro_isp                                0.161208          13
 map_backward                            0.160866         434
 orth1                                   0.149385        8517
 kinhamil                                0.133514        2829
 map_forward                             0.130860         398
 m_bcast_z                               0.123859         928
 fftext_mpi                              0.118061        2829
 augmentation_charge                     0.109619          12
 rpromu_acc                              0.090892        2109
 choleski                                0.081396           2
 m_alltoallv_z                           0.078038         466
 racc0mu_acc                             0.077551        2829
 eccp                                    0.063556         928
 brmix                                   0.060877          12
 proall                                  0.057978           1
 fft_gq                                  0.057239          12
 ggemm                                   0.051881        3757
 w1_copy                                 0.050507        8487
 rad_gga_xc_spin                         0.049442         364
 w1_projall                              0.047572        1901
 overl_mu                                0.045816        2829
 stufak                                  0.044612           1
 overl                                   0.042986        4732
 acc_init_cublas                         0.042361           1
 setup_precond                           0.035354         928
 depsum                                  0.033762          12
 dfftw_execute                           0.031750         159
 acc_init_cusolver                       0.028403           1
 fordep                                  0.027585           1
 densta                                  0.027420          17
 fewald                                  0.020304           1
 map_gather                              0.019156         466
 rsp                                     0.017404           1
 vhamil                                  0.016832        2829
 setwdes                                 0.015180       13931
 apply_precond                           0.014062        1901
 inisym                                  0.013862           1
 potxc                                   0.012316           1
 pw_charge                               0.011001         648
 lincom                                  0.010588          34
 broyd                                   0.009804          12
 setg0                                   0.006644          14
 m_max_i                                 0.003736          41
 forloc                                  0.003032           1
 posmap                                  0.002620           2
 chggra                                  0.002088           1
 rad_lda_xc                              0.002085          16
 brget                                   0.001870         432
 splcof                                  0.001719          42
 bandgap                                 0.001659           1
 strelo                                  0.001549           1
 rad_proj                                0.001406         736
 pothar                                  0.001351          14
 strehar                                 0.001234           1
 brsav                                   0.000967         128
 forhar                                  0.000888           2
 rad_gga_xc                              0.000820          16
 splval                                  0.000682        5326
 rad_pot_weight                          0.000597         372
 strkin                                  0.000578           1
 rcp                                     0.000424           1
 truncate_high_frequency_w1              0.000415        3757
 brpre                                   0.000313          24
 rad_aug_charge                          0.000304         366
 brgrid                                  0.000237           1
 rad_aug_proj                            0.000213         368
 phaser                                  0.000211          45
 vectorpot                               0.000063          13
 set_dd_magatom                          0.000059          14
 crpa_reader                             0.000029           1
 set_rsgf_all                            0.000007          14
 kpar_sync_all                           0.000000           1
 redis_pw_over_bands                     0.000000           1
 rotate_active_occupied_orbital          0.000000           1

Profiling took   0.044370  0.017508  0.003572  0.003513 seconds
Profiling took   0.022935 seconds