 vasp.5.4.4.18Apr17-6-g9f103f2a35 (build Dec 19 2024 10:44:08) gamma-only
 executed on NVIDIA22.7_CrayMPICH date 2025.05.06  16:49:29

 INCAR:
 POTCAR:   PAW_PBE Si 05Jan2001
 POTCAR:   PAW_PBE C 08Apr2002
 POTCAR:   PAW_PBE Si 05Jan2001
   VRHFIN =Si: s2p2

   TITEL  = PAW_PBE Si 05Jan2001
   POMASS =   28.085; ZVAL   =    4.000    mass and valenz
   ENMAX  =  245.345; ENMIN  =  184.009 eV
   QCUT   =   -4.246; QGAM   =    8.493    optimization parameters

   Description
     l     E      TYP  RCUT    TYP  RCUT
     0   .000     23  1.900
     0   .000     23  1.900
     1   .000     23  1.900
     1   .000     23  1.900
     2   .000      7  1.900

 POTCAR:   PAW_PBE C 08Apr2002
   VRHFIN =C: s2p2

   TITEL  = PAW_PBE C 08Apr2002
   POMASS =   12.011; ZVAL   =    4.000    mass and valenz
   ENMAX  =  400.000; ENMIN  =  300.000 eV
   QCUT   =   -5.516; QGAM   =   11.032    optimization parameters

   Description
     l     E      TYP  RCUT    TYP  RCUT
     0   .000     23  1.200
     0   .000     23  1.200
     1   .000     23  1.500
     1  2.500     23  1.500
     2   .000      7  1.500

 Optimization of the real space projectors (new method)

 maximal supplied QI-value         = 19.84
 optimisation between [QCUT,QGAM] = [ 10.12, 20.44] = [ 28.68,116.96] Ry
 Optimized for a Real-space Cutoff    1.38 Angstroem

   l    n(q)    QCUT    max X(q) W(low)/X(q) W(high)/X(q)  e(spline)
   0      8    10.119     8.708    0.16E-04    0.67E-05    0.60E-08
   0      8    10.119   106.241    0.56E-04    0.11E-03    0.54E-07
   1      8    10.119     5.901    0.16E-04    0.16E-05    0.22E-07
   1      8    10.119    73.241    0.22E-03    0.17E-03    0.18E-06
 Optimization of the real space projectors (new method)

 maximal supplied QI-value         = 25.13
 optimisation between [QCUT,QGAM] = [ 10.05, 20.36] = [ 28.30,116.06] Ry
 Optimized for a Real-space Cutoff    1.38 Angstroem

   l    n(q)    QCUT    max X(q) W(low)/X(q) W(high)/X(q)  e(spline)
   0      8    10.053     5.582    0.33E-04    0.15E-04    0.75E-07
   0      8    10.053    69.432    0.23E-03    0.38E-03    0.25E-06
   1      8    10.053     2.780    0.76E-04    0.11E-03    0.15E-06
   1      8    10.053     4.549    0.19E-03    0.19E-03    0.27E-06
 PAW_PBE Si 05Jan2001                   :
 PAW_PBE C 08Apr2002                    :

 POSCAR: Si1 C214
  positions in direct lattice
  velocities in cartesian coordinates
 exchange correlation table for  LEXCH =        8
   RHO(1)=    0.500       N(1)  =     2000
   RHO(2)=  100.500       N(2)  =     4000

 ion  position               nearest neighbor table
   1  0.500  0.500  0.500- 108 1.98 131 1.98  16 1.98  71 1.98 162 1.98 215 1.98
   2  0.041  0.041  0.875-  91 1.54 139 1.54  41 1.54 189 1.54
   3  0.042  0.042  0.208-  92 1.53 140 1.53  42 1.54 190 1.54
   4  0.042  0.042  0.542-  93 1.53 141 1.53 191 1.54  43 1.54
   5  0.041  0.375  0.876-  44 1.53 142 1.53 192 1.54  94 1.54
   6  0.043  0.375  0.209- 143 1.53  45 1.53  95 1.54 193 1.54
   7  0.042  0.375  0.542- 144 1.53 194 1.54  96 1.54  46 1.54
   8  0.041  0.708  0.875- 136 1.53  38 1.53  97 1.54 195 1.54
   9  0.042  0.709  0.208-  39 1.54 137 1.54  98 1.54 196 1.54
  10  0.041  0.709  0.542- 138 1.53 197 1.54  99 1.54  40 1.54
  11  0.375  0.041  0.876-  50 1.53 100 1.53 198 1.54 148 1.54
  12  0.375  0.043  0.209- 101 1.53  51 1.53 149 1.54 199 1.54
  13  0.375  0.042  0.542- 102 1.53 200 1.54 150 1.54  52 1.54
  14  0.375  0.375  0.876-  53 1.53 201 1.54 151 1.54 103 1.54
  15  0.377  0.377  0.211-  54 1.53 104 1.54 152 1.54 202 1.55
  16  0.374  0.374  0.552- 105 1.51 153 1.51 203 1.54   1 1.98
  17  0.374  0.708  0.875- 204 1.53  47 1.54 145 1.54 106 1.54
  18  0.375  0.711  0.206- 107 1.53  48 1.53 205 1.53 146 1.54
  19  0.371  0.711  0.542- 108 1.51 206 1.52 147 1.53  49 1.55
  20  0.708  0.041  0.875-  82 1.53  32 1.53 157 1.54 207 1.54
  21  0.709  0.042  0.208-  33 1.54  83 1.54 158 1.54 208 1.54
  22  0.709  0.041  0.542-  84 1.53 209 1.54 159 1.54  34 1.54
  23  0.708  0.374  0.875- 210 1.53  35 1.54  85 1.54 160 1.54
  24  0.711  0.375  0.206- 161 1.53  36 1.53 211 1.53  86 1.54
  25  0.711  0.371  0.542- 162 1.51 212 1.52  87 1.53  37 1.55
  26  0.707  0.707  0.873-  29 1.53  88 1.54 154 1.54 213 1.55
  27  0.709  0.709  0.207-  30 1.53 214 1.54 155 1.54  89 1.54
  28  0.705  0.705  0.539- 215 1.54 156 1.54  90 1.54  31 1.56
  29  0.791  0.791  0.791-  26 1.53  75 1.53 117 1.53 163 1.54
  30  0.792  0.792  0.124-  27 1.53  73 1.53 115 1.53 164 1.54
  31  0.791  0.791  0.457-  74 1.54 116 1.54 165 1.54  28 1.56
  32  0.792  0.124  0.792-  78 1.53  20 1.53 111 1.53 166 1.54
  33  0.792  0.125  0.125-  21 1.54  76 1.54 109 1.54 167 1.54
  34  0.793  0.124  0.458-  77 1.53 110 1.53 168 1.54  22 1.54
  35  0.791  0.457  0.791-  23 1.54 114 1.54 169 1.54  81 1.56
  36  0.793  0.458  0.124-  24 1.53 112 1.53 170 1.54  79 1.54
  37  0.792  0.458  0.458- 171 1.53 113 1.53  25 1.55  80 1.55
  38  0.124  0.792  0.792- 126 1.53  57 1.53   8 1.53 172 1.54
  39  0.125  0.792  0.125-   9 1.54 124 1.54  55 1.54 173 1.54
  40  0.124  0.793  0.458- 125 1.53  56 1.53 174 1.54  10 1.54
  41  0.125  0.125  0.792-  60 1.54 120 1.54   2 1.54 175 1.54
  42  0.126  0.126  0.126-   3 1.54  58 1.54 118 1.54 176 1.54
  43  0.126  0.126  0.459-  59 1.53 119 1.53 177 1.54   4 1.54
  44  0.124  0.458  0.793- 123 1.53   5 1.53 178 1.54  63 1.54
  45  0.126  0.459  0.126-   6 1.53 121 1.53 179 1.54  61 1.54
  46  0.125  0.459  0.459- 180 1.53 122 1.53   7 1.54  62 1.54
  47  0.457  0.791  0.791-  17 1.54  66 1.54 181 1.54 135 1.56
  48  0.458  0.793  0.124-  18 1.53  64 1.53 182 1.54 133 1.54
  49  0.458  0.792  0.458- 183 1.53  65 1.53 134 1.55  19 1.55
  50  0.458  0.124  0.793-  69 1.53  11 1.53 184 1.54 129 1.54
  51  0.459  0.126  0.126-  12 1.53  67 1.53 185 1.54 127 1.54
  52  0.459  0.125  0.459- 186 1.53  68 1.53  13 1.54 128 1.54
  53  0.458  0.458  0.792- 187 1.53  14 1.53 132 1.55  72 1.55
  54  0.459  0.459  0.125- 188 1.53  15 1.53  70 1.54 130 1.54
  55  0.041  0.875  0.041-  91 1.54 190 1.54  39 1.54 136 1.54
  56  0.041  0.876  0.375-  40 1.53 191 1.53 137 1.54  92 1.54
  57  0.041  0.875  0.708- 189 1.53  38 1.53  93 1.54 138 1.54
  58  0.042  0.208  0.042-  94 1.53 193 1.53  42 1.54 139 1.54
  59  0.043  0.209  0.375- 194 1.53  43 1.53  95 1.54 140 1.54
  60  0.042  0.208  0.709-  41 1.54 192 1.54  96 1.54 141 1.54
[...]
 201  0.291  0.291  0.793- 175 1.53  14 1.54 123 1.54  69 1.54
 202  0.293  0.293  0.127- 176 1.53 121 1.54  67 1.54  15 1.55
 203  0.295  0.295  0.461-  16 1.54  68 1.54 122 1.54 177 1.56
 204  0.289  0.625  0.794-  72 1.53 178 1.53  17 1.53 126 1.54
 205  0.292  0.626  0.125-  18 1.53 179 1.54 124 1.54  70 1.54
 206  0.289  0.629  0.458-  71 1.51  19 1.52 125 1.53 180 1.55
 207  0.625  0.957  0.791- 129 1.53 181 1.53  75 1.54  20 1.54
 208  0.625  0.959  0.124- 182 1.53 127 1.53  21 1.54  73 1.54
 209  0.625  0.958  0.458- 128 1.53  22 1.54  74 1.54 183 1.54
 210  0.625  0.289  0.794- 132 1.53 184 1.53  23 1.53  78 1.54
 211  0.626  0.292  0.125-  24 1.53 185 1.54  76 1.54 130 1.54
 212  0.629  0.289  0.458- 131 1.51  25 1.52  77 1.53 186 1.55
 213  0.623  0.623  0.789- 187 1.53 135 1.54  81 1.54  26 1.55
 214  0.625  0.625  0.124- 188 1.53  27 1.54 133 1.54  79 1.54
 215  0.626  0.626  0.448-  80 1.51 134 1.51  28 1.54   1 1.98

IMPORTANT INFORMATION: All symmetrisations will be switched off!
NOSYMM: (Re-)initialisation of all symmetry stuff for point group C_1.

 KPOINTS: pymatgen v1.1 with grid density = 2210 /

Automatic generation of k-mesh.
Space group operators:
 irot       det(A)        alpha          n_x          n_y          n_z        tau_x        tau_y        tau_z
    1     1.000000     0.000001     1.000000     0.000000     0.000000     0.000000     0.000000     0.000000

 Subroutine IBZKPT returns following result:

 Found      1 irreducible k-points:

 Following reciprocal coordinates:
            Coordinates               Weight
  0.000000  0.000000  0.000000      1.000000

 Following cartesian coordinates:
            Coordinates               Weight
  0.000000  0.000000  0.000000      1.000000

 Subroutine IBZKPT_HF returns following result:

 Found      1 k-points in 1st BZ
 the following      1 k-points will be used (e.g. in the exchange kernel)
 Following reciprocal coordinates:   # in IRBZ
  0.000000  0.000000  0.000000    1.00000000   1 t-inv F

 SYSTEM =  unknown system
 POSCAR =  Si1 C214

 Startparameter for this run:
   NWRITE =      2    write-flag & timer
   PREC   = accura    normal or accurate (medium, high low for compatibility)
   ISTART =      0    job   : 0-new  1-cont  2-samecut
   ICHARG =      2    charge: 1-file 2-atom 10-const
   ISPIN  =      2    spin polarized calculation?
   LNONCOLLINEAR =      F non collinear calculations
   LSORBIT =      F    spin-orbit coupling
   INIWAV =      1    electr: 0-lowe 1-rand  2-diag
   LASPH  =      F    aspherical Exc in radial PAW
   METAGGA=      F    non-selfconsistent MetaGGA calc.

 Electronic Relaxation 1
   ENCUT  =  400.0 eV  29.40 Ry    5.42 a.u.  17.36 17.36 17.36*2*pi/ulx,y,z
   ENINI  =  400.0     initial cutoff
   ENAUG  =  644.9 eV  augmentation charge cutoff
   NELM   =    100;   NELMIN=  2; NELMDL=  0     # of ELM steps
   EDIFF  = 0.1E-04   stopping-criterion for ELM
   LREAL  =      T    real-space projection
   NLSPLINE    = F    spline interpolate recip. space projectors
   LCOMPAT=      F    compatible to vasp.4.4
   GGA_COMPAT  = T    GGA compatible to vasp.4.4-vasp.4.6
   LMAXPAW     = -100 max onsite density
   LMAXMIX     =    2 max onsite mixed and CHGCAR
   VOSKOWN=      0    Vosko Wilk Nusair interpolation
   ROPT   =   -0.00025  -0.00025
 Ionic relaxation
   EDIFFG = -.1E-01   stopping-criterion for IOM
   NSW    =     99    number of steps for IOM
   NBLOCK =      1;   KBLOCK =     99    inner block; outer block
   IBRION =      1    ionic relax: 0-MD 1-quasi-New 2-CG
   NFREE  =      0    steps in history (QN), initial steepest desc. (CG)
   ISIF   =      2    stress and relaxation
   IWAVPR =     11    prediction:  0-non 1-charg 2-wave 3-comb
   ISYM   =      0    0-nonsym 1-usesym 2-fastsym
   LCORR  =      T    Harris-Foulkes like correction to forces

   POTIM  = 0.5000    time-step for ionic-motion
   TEIN   =    0.0    initial temperature
   TEBEG  =    0.0;   TEEND  =   0.0 temperature during run
   SMASS  =  -3.00    Nose mass-parameter (am)
   estimated Nose-frequenzy (Omega)   =  0.10E-29 period in steps =****** mass=  -0.259E-26a.u.
   SCALEE = 1.0000    scale energy and forces
   NPACO  =    256;   APACO  = 16.0  distance and # of slots for P.C.
   PSTRESS=    0.0 pullay stress

  Mass of Ions in am
   POMASS =  28.09 12.01
  Ionic Valenz
   ZVAL   =   4.00  4.00
  Atomic Wigner-Seitz radii
  virtual crystal weights
   VCA    =   1.00  1.00
   NELECT =     860.0000    total number of electrons
   NUPDOWN=       2.0000    fix difference up-down

 DOS related values:
   EMIN   =  10.00;   EMAX   =-10.00  energy-range for DOS
   EFERMI =   0.00
   ISMEAR =    -2;   SIGMA  =   0.05  broadening in eV -4-tet -1-fermi 0-gaus

 Electronic relaxation 2 (details)
[...]
   -.380E+01 -.486E+01 0.242E+01   0.392E+01 0.479E+01 -.253E+01   -.112E+00 0.642E-01 0.109E+00
   -.514E+01 -.511E+01 0.492E+01   0.530E+01 0.526E+01 -.485E+01   -.144E+00 -.144E+00 -.696E-01
   -.584E+01 -.583E+01 -.199E+02   0.592E+01 0.590E+01 0.204E+02   -.800E-01 -.777E-01 -.440E+00
   -.465E+02 -.464E+02 0.432E+02   0.477E+02 0.477E+02 -.452E+02   -.117E+01 -.118E+01 0.186E+01
   -.676E+01 0.510E+01 0.466E+01   0.686E+01 -.508E+01 -.477E+01   -.930E-01 -.158E-01 0.101E+00
   -.340E+01 0.812E+01 -.629E+01   0.354E+01 -.828E+01 0.638E+01   -.137E+00 0.137E+00 -.804E-01
   -.234E+02 0.207E+02 0.699E+01   0.234E+02 -.212E+02 -.641E+01   0.990E-01 0.458E+00 -.545E+00
   0.365E+01 0.600E+00 0.197E+01   -.368E+01 -.591E+00 -.200E+01   0.237E-01 -.327E-02 0.271E-01
   0.360E+01 -.960E+00 -.597E+00   -.371E+01 0.107E+01 0.605E+00   0.985E-01 -.105E+00 -.414E-02
   0.528E+01 -.525E+00 -.155E+00   -.525E+01 0.626E+00 0.134E+00   -.298E-01 -.902E-01 0.195E-01
   0.513E+01 -.672E+01 0.467E+01   -.511E+01 0.683E+01 -.477E+01   -.157E-01 -.939E-01 0.100E+00
   0.814E+01 -.335E+01 -.626E+01   -.830E+01 0.349E+01 0.635E+01   0.139E+00 -.138E+00 -.818E-01
   0.208E+02 -.234E+02 0.696E+01   -.213E+02 0.233E+02 -.639E+01   0.457E+00 0.101E+00 -.540E+00
   0.749E+01 0.746E+01 0.801E+01   -.766E+01 -.764E+01 -.821E+01   0.175E+00 0.175E+00 0.200E+00
   0.692E+01 0.687E+01 -.520E+01   -.701E+01 -.697E+01 0.507E+01   0.891E-01 0.906E-01 0.132E+00
   0.221E+02 0.220E+02 -.738E+01   -.221E+02 -.220E+02 0.838E+01   -.179E-01 -.187E-01 -.933E+00
   0.560E+01 0.558E+01 0.330E+01   -.566E+01 -.563E+01 -.326E+01   0.581E-01 0.575E-01 -.302E-01
   0.285E+01 0.282E+01 -.248E+00   -.278E+01 -.275E+01 0.115E+00   -.644E-01 -.645E-01 0.132E+00
   0.955E+01 0.952E+01 -.653E+01   -.938E+01 -.935E+01 0.649E+01   -.163E+00 -.163E+00 0.429E-01
   0.244E+01 -.136E+01 0.422E-01   -.250E+01 0.141E+01 -.609E-01   0.550E-01 -.370E-01 0.165E-01
   0.229E+01 -.264E+01 -.963E+00   -.230E+01 0.271E+01 0.970E+00   0.828E-02 -.672E-01 -.332E-02
   0.442E+01 -.228E+01 -.320E+01   -.449E+01 0.243E+01 0.312E+01   0.557E-01 -.137E+00 0.862E-01
   0.104E+02 -.748E+01 0.748E+01   -.108E+02 0.783E+01 -.783E+01   0.351E+00 -.328E+00 0.338E+00
   0.573E+01 -.285E+01 -.208E+01   -.584E+01 0.273E+01 0.204E+01   0.106E+00 0.109E+00 0.444E-01
   0.248E+02 -.811E+01 -.572E+01   -.251E+02 0.773E+01 0.623E+01   0.241E+00 0.377E+00 -.487E+00
   -.137E+01 0.240E+01 0.324E-01   0.141E+01 -.246E+01 -.511E-01   -.373E-01 0.548E-01 0.167E-01
   -.266E+01 0.226E+01 -.968E+00   0.274E+01 -.227E+01 0.975E+00   -.673E-01 0.772E-02 -.315E-02
   -.231E+01 0.439E+01 -.319E+01   0.246E+01 -.445E+01 0.311E+01   -.137E+00 0.543E-01 0.850E-01
   -.261E+01 -.260E+01 -.137E+00   0.261E+01 0.260E+01 0.173E+00   -.193E-02 -.167E-02 -.385E-01
   -.395E+01 -.394E+01 -.261E+01   0.400E+01 0.399E+01 0.265E+01   -.499E-01 -.499E-01 -.358E-01
   -.518E+01 -.515E+01 0.895E+00   0.505E+01 0.502E+01 -.104E+01   0.125E+00 0.125E+00 0.133E+00
   -.394E+01 -.278E+01 0.311E+01   0.380E+01 0.295E+01 -.295E+01   0.146E+00 -.164E+00 -.155E+00
   -.600E+01 -.876E+00 -.398E+01   0.613E+01 0.975E+00 0.407E+01   -.121E+00 -.973E-01 -.972E-01
   -.121E+02 0.946E+00 0.991E+00   0.122E+02 -.934E+00 -.103E+01   -.433E-01 -.146E-01 0.287E-01
   -.751E+01 0.104E+02 0.748E+01   0.786E+01 -.108E+02 -.784E+01   -.330E+00 0.354E+00 0.340E+00
   -.283E+01 0.571E+01 -.210E+01   0.272E+01 -.583E+01 0.206E+01   0.108E+00 0.106E+00 0.453E-01
   -.813E+01 0.248E+02 -.570E+01   0.774E+01 -.251E+02 0.621E+01   0.378E+00 0.242E+00 -.490E+00
   -.278E+01 -.394E+01 0.312E+01   0.295E+01 0.379E+01 -.297E+01   -.164E+00 0.146E+00 -.154E+00
   -.885E+00 -.599E+01 -.399E+01   0.986E+00 0.611E+01 0.409E+01   -.986E-01 -.122E+00 -.985E-01
   0.938E+00 -.121E+02 0.981E+00   -.927E+00 0.121E+02 -.102E+01   -.144E-01 -.440E-01 0.292E-01
   -.681E+01 -.678E+01 0.236E+02   0.699E+01 0.696E+01 -.239E+02   -.172E+00 -.176E+00 0.268E+00
   0.274E+00 0.270E+00 -.112E+02   -.378E+00 -.374E+00 0.113E+02   0.962E-01 0.964E-01 -.766E-01
   0.197E+00 0.195E+01 0.731E+00   -.186E+00 -.200E+01 -.747E+00   -.945E-02 0.447E-01 0.159E-01
   -.277E+00 0.138E+01 0.187E+01   0.374E+00 -.139E+01 -.181E+01   -.899E-01 0.438E-02 -.622E-01
   0.747E+00 0.340E+01 0.123E+01   -.728E+00 -.343E+01 -.121E+01   -.125E-01 0.354E-01 -.217E-01
   -.129E+01 -.146E+01 -.563E+00   0.127E+01 0.145E+01 0.588E+00   0.136E-01 0.415E-02 -.251E-01
   -.458E+01 -.476E+01 0.117E+01   0.456E+01 0.485E+01 -.124E+01   0.883E-02 -.881E-01 0.634E-01
   -.130E+01 -.315E+01 0.139E+01   0.113E+01 0.307E+01 -.130E+01   0.169E+00 0.827E-01 -.903E-01
[...]
   -.748E+01 -.746E+01 -.801E+01   0.766E+01 0.764E+01 0.821E+01   -.175E+00 -.175E+00 -.200E+00
   -.221E+02 -.220E+02 0.737E+01   0.221E+02 0.220E+02 -.837E+01   0.181E-01 0.188E-01 0.933E+00
   -.814E+01 0.335E+01 0.627E+01   0.830E+01 -.350E+01 -.636E+01   -.139E+00 0.138E+00 0.816E-01
   -.513E+01 0.673E+01 -.466E+01   0.511E+01 -.683E+01 0.477E+01   0.157E-01 0.939E-01 -.100E+00
   -.208E+02 0.234E+02 -.697E+01   0.213E+02 -.233E+02 0.640E+01   -.456E+00 -.101E+00 0.540E+00
   0.664E+00 0.436E+01 0.260E+01   -.674E+00 -.442E+01 -.257E+01   0.118E-01 0.623E-01 -.301E-01
   0.946E+00 0.101E+01 -.366E+00   -.909E+00 -.925E+00 0.297E+00   -.379E-01 -.776E-01 0.701E-01
   0.380E+01 0.485E+01 -.242E+01   -.392E+01 -.478E+01 0.254E+01   0.112E+00 -.642E-01 -.109E+00
   0.340E+01 -.812E+01 0.629E+01   -.354E+01 0.828E+01 -.638E+01   0.137E+00 -.137E+00 0.806E-01
   0.676E+01 -.510E+01 -.465E+01   -.686E+01 0.508E+01 0.476E+01   0.930E-01 0.157E-01 -.101E+00
   0.234E+02 -.207E+02 -.699E+01   -.234E+02 0.212E+02 0.642E+01   -.989E-01 -.459E+00 0.545E+00
   0.585E+01 0.584E+01 0.199E+02   -.592E+01 -.591E+01 -.204E+02   0.799E-01 0.777E-01 0.439E+00
   0.515E+01 0.511E+01 -.491E+01   -.530E+01 -.526E+01 0.484E+01   0.144E+00 0.144E+00 0.696E-01
   0.465E+02 0.464E+02 -.432E+02   -.477E+02 -.476E+02 0.452E+02   0.117E+01 0.118E+01 -.186E+01
   -.760E-03 0.142E-02 0.865E-03   0.504E-12 0.192E-12 0.156E-12   0.759E-03 -.138E-02 -.115E-02

 POSITION                                       TOTAL-FORCE (eV/Angst)
      5.32306      5.32305      5.32302        -0.000180     -0.000115      0.000324
      0.44118      0.44118      9.31773        -0.001093     -0.001434     -0.001761
      0.44827      0.44823      2.21797        -0.001010     -0.000777     -0.002172
      0.44291      0.44292      5.76959        -0.000382     -0.001657     -0.002622
      0.44142      3.98931      9.32380        -0.000548      0.001949     -0.000911
      0.45445      3.99595      2.22167        -0.002000     -0.000960      0.000597
      0.44413      3.99195      5.76925        -0.000838      0.000474     -0.000962
      0.43480      7.53990      9.31386         0.000431      0.000014     -0.001581
      0.44187      7.54520      2.21184         0.000976     -0.000826      0.001377
      0.43499      7.54508      5.76522         0.001529     -0.000128     -0.002026
      3.98932      0.44148      9.32375         0.001855     -0.000890     -0.001052
      3.99601      0.45447      2.22176        -0.000334     -0.003000      0.000434
      3.99200      0.44420      5.76924         0.000730     -0.001064     -0.001201
      3.99187      3.99191      9.31802         0.000035     -0.000557     -0.000784
      4.01240      4.01240      2.25161        -0.001010     -0.000948      0.000027
      3.92475      3.92525      5.87950        -0.002204     -0.003340      0.000082
      3.98537      7.53988      9.31367         0.001582      0.000863     -0.000316
      3.98868      7.55962      2.20716        -0.000314      0.000578      0.000440
      3.93929      7.58174      5.77352         0.000652     -0.000163      0.001530
      7.53984      0.43480      9.31378        -0.000503      0.000337     -0.000952
      7.54518      0.44185      2.21186        -0.001096      0.000386      0.000980
      7.54500      0.43503      5.76516         0.000180      0.000967     -0.001579
      7.53988      3.98547      9.31361         0.000783      0.000143     -0.000768
      7.55982      3.98868      2.20700         0.000156      0.000054      0.000667
      7.58197      3.93950      5.77339        -0.000045     -0.001459      0.002661
      7.52770      7.52773      9.29487         0.001880      0.001374      0.000771
      7.54507      7.54498      2.20792        -0.001091     -0.000389      0.001489
      7.52406      7.52390      5.74964        -0.002388     -0.001738      0.002842
      8.41776      8.41779      8.41846         0.001370      0.001098      0.001158
      8.42919      8.42918      1.31980        -0.001737     -0.001052     -0.001029
      8.43301      8.43293      4.86635        -0.000045      0.000760     -0.001241
      8.42973      1.32032      8.43034        -0.001314      0.000562     -0.000771
      8.43346      1.33001      1.32860        -0.000068     -0.001030      0.002257
      8.44574      1.31370      4.87750        -0.001046      0.000112      0.003438
      8.41955      4.86972      8.41517        -0.000439     -0.001122     -0.001009
      8.43770      4.87807      1.32101         0.000151     -0.001204      0.000394
      8.44227      4.86803      4.87823        -0.000493      0.000746      0.000496
      1.32028      8.42980      8.43041         0.000548     -0.000943     -0.000607
      1.33005      8.43349      1.32863        -0.000348     -0.000504      0.002392
      1.31368      8.44577      4.87756         0.001048     -0.001558      0.002913
      1.33003      1.33002      8.43439        -0.000515     -0.000741     -0.000882
      1.33740      1.33736      1.33629        -0.000404     -0.000309      0.000319
      1.33363      1.33362      4.88259        -0.000339     -0.000490      0.000709
      1.31917      4.88027      8.43958         0.001198     -0.001068     -0.002132
      1.33924      4.88553      1.33880        -0.001463     -0.000200      0.000118
      1.33081      4.88591      4.88473         0.000614     -0.000160     -0.000633
      4.86967      8.41943      8.41511        -0.001044      0.000792     -0.000276
      4.87811      8.43759      1.32113        -0.001926      0.001034      0.000138
      4.86802      8.44194      4.87838         0.000324      0.000845     -0.000546
      4.88024      1.31931      8.43944        -0.000943      0.000201     -0.001215
      4.88559      1.33928      1.33885        -0.000683     -0.002454     -0.000392
      4.88594      1.33098      4.88471        -0.000677     -0.001123     -0.000333
      4.87677      4.87691      8.41961         0.000108     -0.000173     -0.000931
      4.88541      4.88536      1.34152        -0.000419      0.000278     -0.000389
      0.44138      9.31638      0.44127         0.000627      0.000819     -0.000128
      0.43876      9.32527      3.99005        -0.000103     -0.000159      0.000050
      0.43436      9.31338      7.54131         0.001790     -0.001065     -0.000941
      0.44865      2.21904      0.44805        -0.001264      0.000095      0.001025
      0.45341      2.22207      3.99463        -0.002643      0.000407     -0.001478
      0.44100      2.21126      7.54745        -0.001797      0.000944     -0.002825
[...]
      3.10099      3.10108      8.43815         0.001280      0.000707     -0.001676
      3.11837      3.11833      1.35121        -0.001902     -0.001458     -0.000968
      3.12200      3.12216      4.89640         0.002285      0.001747     -0.002382
      3.08624      6.65740      8.43906        -0.000042     -0.000458     -0.000893
      3.10619      6.66059      1.33246        -0.000970     -0.000209      0.000515
      3.06408      6.70657      4.87265         0.000022      0.001220     -0.002219
      6.65006     10.19159      8.42431         0.000330      0.003056     -0.000401
      6.65674     10.20457      1.32232        -0.001877      0.001080      0.000976
      6.65407     10.20185      4.87681        -0.000764      0.001368      0.001240
      6.65738      3.08644      8.43891         0.000127     -0.000508     -0.000449
      6.66069      3.10619      1.33240        -0.001505     -0.001150      0.000056
      6.70677      3.06433      4.87253        -0.000914     -0.000002     -0.001161
      6.63368      6.63367      8.39446         0.000801      0.000728     -0.000121
      6.65420      6.65415      1.32806        -0.000140      0.000547      0.000330
      6.72130      6.72080      4.76654         0.002080      0.003333      0.000437
    total drift:                                0.000044     -0.000074     -0.000305

  FREE ENERGIE OF THE ION-ELECTRON SYSTEM (eV)
  free  energy   TOTEN  =     -2409.68668021 eV

  energy  without entropy=    -2409.68668021  energy(sigma->0) =    -2409.68668021

 d Force = 0.1347441E-03[ 0.451E-05, 0.265E-03]  d Energy = 0.1393125E-03-0.457E-05
 d Force =-0.3322406E-01[-0.335E-01,-0.330E-01]  d Ewald  =-0.3322436E-01 0.297E-06

 Quasi-Newton relaxation of ions (Broydens 2nd method)
  g(Force)  = 0.637E-04   g(Stress)= 0.000E+00

 retain information from N=  4 steps
 eigenvalues of (default step * inverse Hessian matrix)
  average eigenvalue of G=   2.4364
 eigenvalue spectrum of G is  7.1937  1.5975  0.4772  0.4772

 reached required accuracy - stopping structural energy minimisation
 writing wavefunctions

 total charge

[...]

 magnetization (x)

# of ion       s       p       d       tot
    1       -0.004   0.085   0.000   0.081
    2        0.000   0.002   0.000   0.002
    3       -0.000   0.000   0.000   0.000
    4        0.000   0.003   0.000   0.003
    5        0.000   0.003   0.000   0.004
    6        0.000   0.001   0.000   0.001
    7        0.000   0.002   0.000   0.002
    8       -0.000   0.000   0.000   0.000
    9        0.000   0.001   0.000   0.001
   10       -0.000   0.000   0.000   0.000
   11        0.000   0.003   0.000   0.004
   12        0.000   0.001   0.000   0.001
   13        0.000   0.002   0.000   0.002
   14        0.000   0.003   0.000   0.004
   15        0.000   0.000   0.000   0.001
   16        0.020   0.251   0.000   0.272
   17       -0.000   0.000   0.000   0.000
   18        0.001   0.005   0.000   0.006
   19        0.000   0.002   0.000   0.002
   20       -0.000   0.000   0.000   0.000
   21        0.000   0.001   0.000   0.001
   22       -0.000   0.000   0.000   0.000
   23       -0.000   0.000   0.000   0.000
   24        0.001   0.005   0.000   0.006
   25        0.000   0.002   0.000   0.002
   26        0.000   0.000   0.000   0.000
   27       -0.000  -0.001   0.000  -0.002
   28       -0.002  -0.003   0.000  -0.005
   29        0.000   0.000   0.000   0.000
   30        0.000   0.003   0.000   0.003
   31        0.003   0.026   0.000   0.029
   32        0.000   0.000   0.000   0.000
   33        0.000   0.001   0.000   0.001
   34        0.000   0.000   0.000   0.000
   35        0.000   0.003   0.000   0.004
   36        0.000   0.004   0.000   0.004
   37        0.000   0.003   0.000   0.003
   38        0.000   0.000   0.000   0.000
   39        0.000   0.001   0.000   0.001
   40        0.000   0.000   0.000   0.000
   41       -0.000   0.000   0.000   0.000
   42        0.000   0.001   0.000   0.001
   43        0.000   0.002   0.000   0.002
   44        0.001   0.007   0.000   0.007
   45       -0.000   0.000   0.000  -0.000
   46       -0.000  -0.000   0.000  -0.000
   47        0.000   0.003   0.000   0.004
   48        0.000   0.004   0.000   0.004
   49        0.000   0.003   0.000   0.003
   50        0.001   0.007   0.000   0.007
   51       -0.000   0.000   0.000  -0.000
   52       -0.000  -0.000   0.000  -0.000
   53       -0.000  -0.000   0.000  -0.001
   54        0.000   0.001   0.000   0.001
   55        0.000   0.001   0.000   0.001
   56       -0.000   0.000   0.000   0.000
   57        0.000   0.001   0.000   0.001
   58        0.000   0.000   0.000   0.000
   59       -0.000   0.000   0.000   0.000
   60        0.000   0.005   0.000   0.005
[...]
  201       -0.000  -0.001   0.000  -0.002
  202        0.000   0.000   0.000   0.000
  203       -0.002  -0.003   0.000  -0.005
  204        0.001   0.005   0.000   0.006
  205       -0.000   0.000   0.000   0.000
  206        0.000   0.002   0.000   0.002
  207        0.000   0.001   0.000   0.001
  208        0.000   0.003   0.000   0.004
  209        0.000   0.002   0.000   0.002
  210        0.001   0.005   0.000   0.006
  211       -0.000   0.000   0.000   0.000
  212        0.000   0.002   0.000   0.002
  213        0.000   0.000   0.000   0.001
  214        0.000   0.003   0.000   0.004
  215        0.020   0.251   0.000   0.272
tot          0.086   1.274   0.000   1.360