 vasp.5.4.4.18Apr17-6-g9f103f2a35 (build Jun 14 2024 12:30:39) gamma-only
 executed on NVIDIA22.7_CrayMPICH date 2025.02.14  08:56:23

 INCAR:
 POTCAR:   PAW_PBE Si 05Jan2001
 POTCAR:   PAW_PBE C 08Apr2002
 POTCAR:   PAW_PBE Si 05Jan2001
   VRHFIN =Si: s2p2

   TITEL  = PAW_PBE Si 05Jan2001
   POMASS =   28.085; ZVAL   =    4.000    mass and valenz
   ENMAX  =  245.345; ENMIN  =  184.009 eV
   QCUT   =   -4.246; QGAM   =    8.493    optimization parameters

   Description
     l     E      TYP  RCUT    TYP  RCUT
     0   .000     23  1.900
     0   .000     23  1.900
     1   .000     23  1.900
     1   .000     23  1.900
     2   .000      7  1.900

 POTCAR:   PAW_PBE C 08Apr2002
   VRHFIN =C: s2p2

   TITEL  = PAW_PBE C 08Apr2002
   POMASS =   12.011; ZVAL   =    4.000    mass and valenz
   ENMAX  =  400.000; ENMIN  =  300.000 eV
   QCUT   =   -5.516; QGAM   =   11.032    optimization parameters

   Description
     l     E      TYP  RCUT    TYP  RCUT
     0   .000     23  1.200
     0   .000     23  1.200
     1   .000     23  1.500
     1  2.500     23  1.500
     2   .000      7  1.500

 Optimization of the real space projectors (new method)

 maximal supplied QI-value         = 19.84
 optimisation between [QCUT,QGAM] = [ 10.12, 20.44] = [ 28.68,116.96] Ry
 Optimized for a Real-space Cutoff    1.38 Angstroem

   l    n(q)    QCUT    max X(q) W(low)/X(q) W(high)/X(q)  e(spline)
   0      8    10.119     8.708    0.16E-04    0.67E-05    0.60E-08
   0      8    10.119   106.241    0.56E-04    0.11E-03    0.54E-07
   1      8    10.119     5.901    0.16E-04    0.16E-05    0.22E-07
   1      8    10.119    73.241    0.22E-03    0.17E-03    0.18E-06
 Optimization of the real space projectors (new method)

 maximal supplied QI-value         = 25.13
 optimisation between [QCUT,QGAM] = [ 10.05, 20.36] = [ 28.30,116.06] Ry
 Optimized for a Real-space Cutoff    1.38 Angstroem

   l    n(q)    QCUT    max X(q) W(low)/X(q) W(high)/X(q)  e(spline)
   0      8    10.053     5.582    0.33E-04    0.15E-04    0.75E-07
   0      8    10.053    69.432    0.23E-03    0.38E-03    0.25E-06
   1      8    10.053     2.780    0.76E-04    0.11E-03    0.15E-06
   1      8    10.053     4.549    0.19E-03    0.19E-03    0.27E-06
 PAW_PBE Si 05Jan2001                   :
 PAW_PBE C 08Apr2002                    :

 POSCAR: generated by phonopy
  positions in direct lattice
  velocities in cartesian coordinates
 exchange correlation table for  LEXCH =        8
   RHO(1)=    0.500       N(1)  =     2000
   RHO(2)=  100.500       N(2)  =     4000

 ion  position               nearest neighbor table
   1  0.000  0.000  0.000-  26 1.98 189 1.98 136 1.98  75 1.98  82 1.98 117 1.98
   2  0.205  0.205  0.039- 189 1.54 139 1.54  91 1.54  40 1.56
   3  0.207  0.207  0.373-  41 1.53  92 1.54 140 1.54 190 1.55
   4  0.209  0.209  0.707-  42 1.53 191 1.54 141 1.54  93 1.54
   5  0.209  0.541  0.042-  94 1.53 192 1.54 142 1.54  43 1.54
   6  0.208  0.541  0.375-  95 1.53  44 1.53 143 1.54 193 1.54
   7  0.209  0.542  0.708-  45 1.54  96 1.54 144 1.54 194 1.54
   8  0.211  0.871  0.042- 136 1.51 195 1.52  97 1.53  37 1.55
   9  0.208  0.874  0.375- 196 1.53  38 1.54  98 1.54 137 1.54
  10  0.211  0.875  0.706- 138 1.53  39 1.53 197 1.53  99 1.54
  11  0.541  0.209  0.042- 148 1.53 198 1.54 100 1.54  49 1.54
  12  0.541  0.208  0.375- 149 1.53  50 1.53 101 1.54 199 1.54
  13  0.542  0.209  0.708-  51 1.54 150 1.54 102 1.54 200 1.54
  14  0.542  0.542  0.042- 103 1.53 151 1.53 201 1.54  52 1.54
  15  0.541  0.541  0.375- 104 1.54 152 1.54  53 1.54 202 1.54
  16  0.542  0.542  0.708- 153 1.53 105 1.53  54 1.54 203 1.54
  17  0.542  0.875  0.042- 145 1.53 204 1.54 106 1.54  46 1.54
  18  0.541  0.875  0.376-  47 1.53 146 1.53 205 1.54 107 1.54
  19  0.543  0.875  0.709- 147 1.53  48 1.53 108 1.54 206 1.54
  20  0.871  0.211  0.042-  82 1.51 207 1.52 157 1.53  31 1.55
  21  0.874  0.208  0.375- 208 1.53  32 1.54 158 1.54  83 1.54
  22  0.875  0.211  0.706-  84 1.53  33 1.53 209 1.53 159 1.54
  23  0.875  0.542  0.042-  85 1.53 210 1.54 160 1.54  34 1.54
  24  0.875  0.541  0.376-  35 1.53  86 1.53 211 1.54 161 1.54
  25  0.875  0.543  0.709-  87 1.53  36 1.53 162 1.54 212 1.54
  26  0.874  0.874  0.052-  88 1.51 154 1.51 213 1.54   1 1.98
  27  0.875  0.875  0.376-  29 1.53 214 1.54 155 1.54  89 1.54
  28  0.877  0.877  0.711-  30 1.53  90 1.54 156 1.54 215 1.55
  29  0.958  0.958  0.292- 163 1.53  27 1.53 115 1.55  73 1.55
  30  0.959  0.959  0.625- 164 1.53  28 1.53 116 1.54  74 1.54
  31  0.958  0.292  0.958- 165 1.53  78 1.53  20 1.55 111 1.55
  32  0.957  0.291  0.291-  21 1.54  76 1.54 166 1.54 109 1.56
  33  0.958  0.293  0.624-  22 1.53  77 1.53 167 1.54 110 1.54
  34  0.959  0.625  0.959- 168 1.53  81 1.53  23 1.54 114 1.54
  35  0.958  0.624  0.293-  79 1.53  24 1.53 169 1.54 112 1.54
  36  0.959  0.626  0.626-  25 1.53  80 1.53 170 1.54 113 1.54
  37  0.292  0.958  0.958- 171 1.53 126 1.53   8 1.55  57 1.55
  38  0.291  0.957  0.291-   9 1.54 124 1.54 172 1.54  55 1.56
  39  0.293  0.958  0.624-  10 1.53 125 1.53 173 1.54  56 1.54
  40  0.291  0.291  0.957-  60 1.54 120 1.54 174 1.54   2 1.56
  41  0.291  0.291  0.291-   3 1.53  58 1.53 118 1.53 175 1.54
  42  0.292  0.292  0.624-   4 1.53  59 1.53 119 1.53 176 1.54
  43  0.293  0.624  0.958-  63 1.53 123 1.53 177 1.54   5 1.54
  44  0.292  0.624  0.292-  61 1.53   6 1.53 121 1.53 178 1.54
  45  0.292  0.625  0.625-   7 1.54  62 1.54 122 1.54 179 1.54
  46  0.625  0.959  0.959- 180 1.53 135 1.53  17 1.54  66 1.54
  47  0.624  0.958  0.293- 133 1.53  18 1.53 181 1.54  64 1.54
  48  0.626  0.959  0.626-  19 1.53 134 1.53 182 1.54  65 1.54
  49  0.624  0.293  0.958- 129 1.53  69 1.53 183 1.54  11 1.54
  50  0.624  0.292  0.292- 127 1.53  12 1.53  67 1.53 184 1.54
  51  0.625  0.292  0.625-  13 1.54 128 1.54  68 1.54 185 1.54
  52  0.626  0.626  0.959-  72 1.53 132 1.53 186 1.54  14 1.54
  53  0.625  0.625  0.292-  70 1.54 130 1.54  15 1.54 187 1.54
  54  0.626  0.626  0.626-  16 1.54 131 1.54  71 1.54 188 1.54
  55  0.205  0.039  0.205- 136 1.54  91 1.54 190 1.54  38 1.56
  56  0.209  0.042  0.541-  92 1.53 137 1.54 191 1.54  39 1.54
  57  0.211  0.042  0.871- 189 1.51 138 1.52  93 1.53  37 1.55
  58  0.207  0.373  0.207-  41 1.53  94 1.54 193 1.54 139 1.55
  59  0.208  0.375  0.541-  95 1.53  42 1.53 194 1.54 140 1.54
  60  0.208  0.375  0.874- 141 1.53  40 1.54  96 1.54 192 1.54
[...]
 201  0.458  0.458  0.958-  69 1.53 123 1.53  14 1.54 174 1.54
 202  0.458  0.458  0.292-  67 1.53 121 1.53 175 1.54  15 1.54
 203  0.459  0.459  0.625-  68 1.54 122 1.54 176 1.54  16 1.54
 204  0.459  0.791  0.958-  72 1.53  17 1.54 126 1.54 177 1.54
 205  0.458  0.791  0.292- 178 1.54  70 1.54 124 1.54  18 1.54
 206  0.459  0.792  0.625-  71 1.53 179 1.53 125 1.54  19 1.54
 207  0.789  0.129  0.958-  75 1.51  20 1.52 129 1.53 180 1.55
 208  0.789  0.125  0.294-  73 1.53 181 1.53  21 1.53 127 1.54
 209  0.792  0.126  0.625-  22 1.53 182 1.54 128 1.54  74 1.54
 210  0.791  0.459  0.958- 132 1.53  23 1.54  78 1.54 183 1.54
 211  0.791  0.458  0.292- 184 1.54 130 1.54  76 1.54  24 1.54
 212  0.792  0.459  0.625- 131 1.53 185 1.53  77 1.54  25 1.54
 213  0.795  0.795  0.961-  26 1.54  81 1.54 135 1.54 186 1.56
 214  0.791  0.791  0.293- 187 1.53  27 1.54 133 1.54  79 1.54
 215  0.793  0.793  0.627- 188 1.53 134 1.54  80 1.54  28 1.55

IMPORTANT INFORMATION: All symmetrisations will be switched off!
NOSYMM: (Re-)initialisation of all symmetry stuff for point group C_1.

 KPOINTS: pymatgen v1.1 with grid density = 2210 /

Automatic generation of k-mesh.
Space group operators:
 irot       det(A)        alpha          n_x          n_y          n_z        tau_x        tau_y        tau_z
    1     1.000000     0.000000     1.000000     0.000000     0.000000     0.000000     0.000000     0.000000

 Subroutine IBZKPT returns following result:

 Found      1 irreducible k-points:

 Following reciprocal coordinates:
            Coordinates               Weight
  0.000000  0.000000  0.000000      1.000000

 Following cartesian coordinates:
            Coordinates               Weight
  0.000000  0.000000  0.000000      1.000000

 Subroutine IBZKPT_HF returns following result:

 Found      1 k-points in 1st BZ
 the following      1 k-points will be used (e.g. in the exchange kernel)
 Following reciprocal coordinates:   # in IRBZ
  0.000000  0.000000  0.000000    1.00000000   1 t-inv F

 SYSTEM =  unknown system
 POSCAR =  generated by phonopy

 Startparameter for this run:
   NWRITE =      2    write-flag & timer
   PREC   = accura    normal or accurate (medium, high low for compatibility)
   ISTART =      1    job   : 0-new  1-cont  2-samecut
   ICHARG =      2    charge: 1-file 2-atom 10-const
   ISPIN  =      2    spin polarized calculation?
   LNONCOLLINEAR =      F non collinear calculations
   LSORBIT =      F    spin-orbit coupling
   INIWAV =      1    electr: 0-lowe 1-rand  2-diag
   LASPH  =      F    aspherical Exc in radial PAW
   METAGGA=      F    non-selfconsistent MetaGGA calc.

 Electronic Relaxation 1
   ENCUT  =  400.0 eV  29.40 Ry    5.42 a.u.  17.36 17.36 17.36*2*pi/ulx,y,z
   ENINI  =  400.0     initial cutoff
   ENAUG  =  644.9 eV  augmentation charge cutoff
   NELM   =    100;   NELMIN=  2; NELMDL=  0     # of ELM steps
   EDIFF  = 0.1E-04   stopping-criterion for ELM
   LREAL  =      T    real-space projection
   NLSPLINE    = F    spline interpolate recip. space projectors
   LCOMPAT=      F    compatible to vasp.4.4
   GGA_COMPAT  = T    GGA compatible to vasp.4.4-vasp.4.6
   LMAXPAW     = -100 max onsite density
   LMAXMIX     =    2 max onsite mixed and CHGCAR
   VOSKOWN=      0    Vosko Wilk Nusair interpolation
   ROPT   =   -0.00025  -0.00025
 Ionic relaxation
   EDIFFG = -.1E-01   stopping-criterion for IOM
   NSW    =     99    number of steps for IOM
   NBLOCK =      1;   KBLOCK =     99    inner block; outer block
   IBRION =      2    ionic relax: 0-MD 1-quasi-New 2-CG
   NFREE  =      1    steps in history (QN), initial steepest desc. (CG)
   ISIF   =      2    stress and relaxation
   IWAVPR =     11    prediction:  0-non 1-charg 2-wave 3-comb
   ISYM   =      0    0-nonsym 1-usesym 2-fastsym
   LCORR  =      T    Harris-Foulkes like correction to forces

   POTIM  = 0.5000    time-step for ionic-motion
   TEIN   =    0.0    initial temperature
   TEBEG  =    0.0;   TEEND  =   0.0 temperature during run
   SMASS  =  -3.00    Nose mass-parameter (am)
   estimated Nose-frequenzy (Omega)   =  0.10E-29 period in steps =****** mass=  -0.259E-26a.u.
   SCALEE = 1.0000    scale energy and forces
   NPACO  =    256;   APACO  = 16.0  distance and # of slots for P.C.
   PSTRESS=    0.0 pullay stress

  Mass of Ions in am
   POMASS =  28.09 12.01
  Ionic Valenz
   ZVAL   =   4.00  4.00
  Atomic Wigner-Seitz radii
  virtual crystal weights
   VCA    =   1.00  1.00
   NELECT =     860.0000    total number of electrons
   NUPDOWN=       2.0000    fix difference up-down

 DOS related values:
   EMIN   =  10.00;   EMAX   =-10.00  energy-range for DOS
   EFERMI =   0.00
   ISMEAR =    -2;   SIGMA  =   0.05  broadening in eV -4-tet -1-fermi 0-gaus

 Electronic relaxation 2 (details)
[...]
   0.573E+01 0.798E+01 -.823E+00   -.592E+01 -.802E+01 0.908E+00   0.174E+00 0.296E-01 -.801E-01
   -.328E+01 0.140E+01 0.228E+01   0.338E+01 -.141E+01 -.231E+01   -.845E-01 0.134E-01 0.248E-01
   -.118E+01 -.813E+00 0.402E+01   0.120E+01 0.833E+00 -.411E+01   -.751E-02 -.179E-01 0.884E-01
   -.271E+01 0.251E+01 -.219E+00   0.276E+01 -.259E+01 0.203E+00   -.435E-01 0.687E-01 0.150E-01
   -.130E+00 -.377E+01 0.161E+00   0.918E-01 0.382E+01 -.133E+00   0.355E-01 -.484E-01 -.281E-01
   0.661E-01 -.843E+00 0.129E+01   -.699E-01 0.857E+00 -.133E+01   0.327E-02 -.118E-01 0.359E-01
   0.882E-02 -.412E+00 -.167E+01   -.124E-01 0.412E+00 0.168E+01   0.313E-02 -.183E-02 -.138E-01
   -.106E+01 -.566E+01 -.241E+01   0.105E+01 0.576E+01 0.245E+01   0.857E-02 -.954E-01 -.452E-01
   -.515E+00 -.616E+00 0.482E+00   0.493E+00 0.674E+00 -.465E+00   0.218E-01 -.521E-01 -.175E-01
   -.341E+01 0.155E+01 -.470E+01   0.345E+01 -.160E+01 0.479E+01   -.404E-01 0.456E-01 -.961E-01
   -.313E+02 -.676E+01 0.747E+00   0.313E+02 0.664E+01 -.926E+00   0.410E-01 0.111E+00 0.178E+00
   -.730E+01 -.546E+01 0.139E+01   0.739E+01 0.556E+01 -.143E+01   -.802E-01 -.928E-01 0.405E-01
   -.556E+01 0.748E+01 -.154E+01   0.583E+01 -.758E+01 0.169E+01   -.248E+00 0.858E-01 -.140E+00
   0.938E+00 -.579E+01 -.266E+01   -.934E+00 0.587E+01 0.271E+01   -.373E-02 -.799E-01 -.484E-01
   0.315E+00 -.109E+01 0.408E+00   -.332E+00 0.110E+01 -.389E+00   0.163E-01 0.684E-03 -.191E-01
   0.312E+01 0.158E+01 -.500E+01   -.317E+01 -.162E+01 0.505E+01   0.531E-01 0.391E-01 -.581E-01
   -.111E+01 -.723E+02 -.215E+02   0.867E+00 0.781E+02 0.234E+02   0.229E+00 -.557E+01 -.181E+01
   -.165E+00 -.661E+01 -.196E+01   0.156E+00 0.671E+01 0.196E+01   0.779E-02 -.925E-01 0.143E-02
   -.307E+00 0.134E+02 -.173E+02   0.243E+00 -.137E+02 0.176E+02   0.604E-01 0.276E+00 -.286E+00
   0.128E+00 -.254E+02 0.557E+01   -.980E-01 0.259E+02 -.571E+01   -.293E-01 -.406E+00 0.129E+00
   -.117E+00 0.102E+02 -.544E+01   0.115E+00 -.103E+02 0.547E+01   0.158E-02 0.102E+00 -.374E-01
   -.219E+02 0.128E+02 0.556E+01   0.223E+02 -.130E+02 -.568E+01   -.356E+00 0.157E+00 0.111E+00
   -.119E+02 -.699E+01 0.601E+01   0.123E+02 0.719E+01 -.614E+01   -.352E+00 -.190E+00 0.129E+00
   -.514E+01 0.241E+01 -.859E+00   0.517E+01 -.247E+01 0.815E+00   -.228E-01 0.469E-01 0.425E-01
   0.877E+01 -.517E+01 -.545E+01   -.887E+01 0.523E+01 0.547E+01   0.978E-01 -.596E-01 -.219E-01
   -.491E+00 -.572E+01 -.718E+00   0.452E+00 0.576E+01 0.689E+00   0.326E-01 -.240E-01 0.279E-01
   0.330E+01 0.198E+01 -.613E+01   -.331E+01 -.198E+01 0.623E+01   0.122E-01 -.137E-02 -.105E+00
   0.221E+02 0.127E+02 0.589E+01   -.226E+02 -.130E+02 -.608E+01   0.432E+00 0.242E+00 0.182E+00
   0.120E+02 -.660E+01 0.593E+01   -.124E+02 0.688E+01 -.610E+01   0.373E+00 -.267E+00 0.168E+00
   0.507E+01 0.232E+01 -.285E+00   -.507E+01 -.237E+01 0.325E+00   -.454E-02 0.474E-01 -.364E-01
   0.345E+00 0.137E+02 0.593E+01   -.286E+00 -.142E+02 -.611E+01   -.551E-01 0.463E+00 0.170E+00
   0.168E+00 0.669E-01 0.826E+01   -.156E+00 -.613E-01 -.836E+01   -.118E-01 -.572E-02 0.105E+00
   0.154E+00 0.182E+01 0.145E+01   -.150E+00 -.187E+01 -.149E+01   -.318E-02 0.519E-01 0.339E-01
   0.465E+01 0.324E+01 -.276E+00   -.468E+01 -.321E+01 0.315E+00   0.227E-01 -.290E-01 -.360E-01
   0.161E+01 -.774E+00 0.151E+01   -.166E+01 0.809E+00 -.154E+01   0.476E-01 -.311E-01 0.338E-01
   0.242E+01 0.143E+01 -.140E+01   -.245E+01 -.144E+01 0.144E+01   0.252E-01 0.816E-02 -.395E-01
   -.889E+01 -.516E+01 -.530E+01   0.897E+01 0.520E+01 0.541E+01   -.774E-01 -.402E-01 -.106E+00
   0.671E+00 -.532E+01 -.866E+00   -.604E+00 0.543E+01 0.812E+00   -.594E-01 -.968E-01 0.513E-01
   -.356E+01 0.178E+01 -.600E+01   0.357E+01 -.182E+01 0.609E+01   -.479E-02 0.434E-01 -.895E-01
   -.437E+01 0.319E+01 -.960E+00   0.449E+01 -.320E+01 0.894E+00   -.108E+00 0.725E-02 0.637E-01
   -.173E+01 -.105E+01 0.126E+01   0.175E+01 0.105E+01 -.130E+01   -.132E-01 -.541E-02 0.338E-01
   -.240E+01 0.117E+01 -.151E+01   0.243E+01 -.122E+01 0.157E+01   -.226E-01 0.463E-01 -.620E-01
   -.323E+00 -.394E+01 -.601E+01   0.279E+00 0.397E+01 0.611E+01   0.422E-01 -.221E-01 -.101E+00
   -.221E+00 -.267E+01 -.149E+01   0.183E+00 0.272E+01 0.155E+01   0.361E-01 -.424E-01 -.603E-01
   -.485E-01 -.122E-01 -.630E+01   0.523E-01 0.136E-01 0.641E+01   -.325E-02 -.136E-02 -.106E+00
   0.191E+02 -.107E+02 0.228E+02   -.195E+02 0.109E+02 -.236E+02   0.331E+00 -.201E+00 0.764E+00
   0.308E+01 0.236E+01 0.260E+01   -.312E+01 -.239E+01 -.263E+01   0.345E-01 0.316E-01 0.303E-01
   0.938E+01 0.303E+02 0.204E+01   -.983E+01 -.304E+02 -.193E+01   0.425E+00 0.659E-01 -.988E-01
   -.182E+01 0.130E+01 0.124E+02   0.187E+01 -.131E+01 -.127E+02   -.512E-01 0.159E-01 0.256E+00
   0.400E-01 0.156E+01 0.423E+01   -.210E-01 -.159E+01 -.427E+01   -.193E-01 0.208E-01 0.458E-01
   -.783E+00 0.879E+01 0.141E+01   0.857E+00 -.892E+01 -.148E+01   -.701E-01 0.123E+00 0.708E-01
[...]
   -.695E-02 0.425E+00 0.165E+01   0.838E-02 -.424E+00 -.166E+01   -.966E-03 0.692E-03 0.154E-01
   -.720E-01 0.848E+00 -.130E+01   0.736E-01 -.863E+00 0.133E+01   -.121E-02 0.119E-01 -.356E-01
   0.329E+01 -.140E+01 -.227E+01   -.338E+01 0.141E+01 0.229E+01   0.846E-01 -.149E-01 -.232E-01
   0.271E+01 -.250E+01 0.237E+00   -.275E+01 0.258E+01 -.224E+00   0.420E-01 -.678E-01 -.131E-01
   0.118E+01 0.827E+00 -.403E+01   -.119E+01 -.846E+00 0.412E+01   0.768E-02 0.175E-01 -.914E-01
   -.309E+02 0.699E+01 -.232E+01   0.312E+02 -.663E+01 0.215E+01   -.267E+00 -.346E+00 0.154E+00
   -.571E+01 -.797E+01 0.797E+00   0.590E+01 0.801E+01 -.880E+00   -.176E+00 -.311E-01 0.784E-01
   -.711E+01 0.512E+01 -.137E+01   0.719E+01 -.524E+01 0.146E+01   -.806E-01 0.117E+00 -.846E-01
   -.363E+01 -.146E+01 -.262E+01   0.367E+01 0.148E+01 0.264E+01   -.362E-01 -.195E-01 -.299E-01
   -.295E+01 -.273E+01 0.110E+00   0.300E+01 0.276E+01 -.800E-01   -.414E-01 -.309E-01 -.283E-01
   -.138E+01 0.776E+00 -.424E+01   0.140E+01 -.803E+00 0.428E+01   -.845E-02 0.246E-01 -.396E-01
   -.398E+00 -.219E+02 -.230E+02   0.398E+00 0.223E+02 0.238E+02   -.649E-03 -.379E+00 -.739E+00
   -.392E+00 -.983E+01 -.246E+01   0.313E+00 0.101E+02 0.241E+01   0.741E-01 -.202E+00 0.425E-01
   -.228E+00 0.231E+01 -.124E+02   0.215E+00 -.237E+01 0.126E+02   0.127E-01 0.517E-01 -.247E+00
   0.175E-01 0.826E-02 0.169E-01   0.458E-12 -.144E-12 -.771E-12   -.158E-01 -.438E-01 -.532E-02

 POSITION                                       TOTAL-FORCE (eV/Angst)
     -0.00004     -0.00012      0.00004        -0.000078     -0.000636      0.000131
     -0.00011      1.44429      2.76041         0.000066     -0.000460      0.000317
      0.00037     -1.44354      4.84091         0.000025     -0.000059      0.000493
      0.00086     -4.33110      6.91344         0.001113     -0.000575     -0.000014
     -2.50215      2.89655      4.86113        -0.000221     -0.000242      0.000537
     -2.50255     -0.00198      6.90690        -0.000078      0.000125     -0.000197
     -2.50449     -2.89191      8.96238        -0.000155     -0.000154     -0.000392
     -4.96878      4.33772      6.91156        -0.000853      0.000687     -0.000087
     -5.01282      1.44378      8.95908        -0.000277     -0.000393     -0.000057
     -4.99801     -1.42267     11.01104        -0.000010      0.000006      0.000438
      2.50283      2.89612      4.86130        -0.000250      0.000247     -0.000085
      2.50315     -0.00195      6.90622        -0.000011      0.000108      0.000113
      2.50541     -2.89169      8.96227         0.000085      0.000005     -0.000249
      0.00044      4.34512      6.91667        -0.000169     -0.000157     -0.000095
      0.00048      1.44566      8.96155         0.000311      0.000232      0.000013
     -0.00001     -1.44548     11.01847        -0.000207     -0.000388      0.000003
     -2.50784      5.79374      8.96735         0.000156      0.000189     -0.000101
     -2.51035      2.88836     11.01388        -0.000340      0.000004      0.000131
     -2.50367      0.00135     13.07469        -0.000425      0.000079      0.000183
      4.97088      4.33952      6.90575         0.000725     -0.000511     -0.001194
      5.01192      1.44315      8.95972         0.000484     -0.000299      0.000551
      4.99857     -1.42355     11.01150         0.000061     -0.000411     -0.000059
      2.50818      5.79316      8.96694        -0.000053      0.000147      0.000518
      2.50981      2.88779     11.01383         0.000504      0.000591      0.000249
      2.50337      0.00161     13.07383         0.000057     -0.000059     -0.000550
     -0.00419      7.14663     11.05948        -0.000848     -0.002198     -0.001054
      0.00017      4.33621     13.06192        -0.000190     -0.000073     -0.000803
     -0.00087      1.44563     15.14758        -0.000262      0.000083     -0.000106
      0.00063      5.78482     13.56989        -0.000178      0.000271      0.000011
      0.00044      2.89925     15.63356        -0.000030     -0.000752     -0.000462
      5.01011     -2.89188     13.57024         0.000372     -0.000344      0.000169
      5.01493      2.89528      9.46000         0.000163     -0.000078      0.000124
      5.00807      0.01641     11.52399         0.000244     -0.000650     -0.000083
      2.51085     -1.44920     15.63353        -0.000653      0.000316     -0.000486
      2.51812      4.32909     11.52425        -0.000423      0.000566     -0.000060
      2.50763      1.44790     13.58602         0.000345      0.000231     -0.000231
     -5.01031     -2.89279     13.56897         0.000246      0.000315     -0.000404
     -5.01461      2.89560      9.46133         0.000194      0.000505      0.000269
     -5.00874      0.01625     11.52530        -0.000140     -0.000170      0.000918
      0.00046     -5.79070      9.46102         0.000549     -0.000165      0.000161
      0.00021      0.00011      5.35887        -0.000328     -0.000135      0.000565
     -0.00011     -2.88726      7.42250        -0.000080     -0.000123     -0.000682
     -2.49044     -4.34580     11.52531        -0.000210     -0.000041      0.000857
     -2.50054      1.44362      7.42254        -0.000135      0.000013     -0.000839
     -2.50455     -1.44588      9.47832         0.000443      0.000297     -0.000173
     -2.51106     -1.44995     15.63405         0.000018      0.000002     -0.000622
     -2.51862      4.32865     11.52403         0.000970      0.000868     -0.000147
     -2.50802      1.44753     13.58582         0.000159     -0.000311      0.000239
      2.48922     -4.34555     11.52385         0.001435      0.000452     -0.000234
      2.50000      1.44335      7.42244         0.000025      0.000110      0.000112
      2.50406     -1.44649      9.47821        -0.000037      0.000177     -0.000364
     -0.00055     -2.89577     13.58591        -0.000166      0.000171      0.000232
     -0.00077      2.89190      9.47819         0.000079     -0.000228     -0.000332
      0.00001      0.00002     11.53673         0.000546      0.000169      0.000335
      1.25068     -0.72203      2.75998        -0.000707      0.000426      0.000305
      1.25734     -3.61522      4.86123        -0.000113      0.000126      0.000579
      1.27235     -6.47118      6.91081         0.000421     -0.000605     -0.000406
     -1.24995      0.72201      4.84087        -0.000061      0.000084      0.000520
     -1.25293     -2.16642      6.90682        -0.000050      0.000046     -0.000065
     -1.25580     -5.06299      8.95927        -0.000573     -0.000238      0.000020
[...]
     -0.00043     -4.34514     11.52286         0.000211      0.000158      0.000080
      0.00001      1.44551      7.42099         0.000272      0.000363     -0.000060
     -0.00048     -1.44564      9.47796        -0.000293     -0.000260     -0.000008
     -2.50285     -2.89607     13.57830         0.000331     -0.000149      0.000119
     -2.50542      2.89173      9.47728        -0.000049      0.000011      0.000186
     -2.50316      0.00197     11.53330         0.000009     -0.000081     -0.000158
      4.96873     -4.33771     11.52786         0.000795     -0.000516      0.000145
      4.99806      1.42268      7.42846        -0.000075     -0.000067     -0.000403
      5.01280     -1.44382      9.48043         0.000351      0.000460      0.000037
      2.50217     -2.89650     13.57838         0.000214      0.000285     -0.000507
      2.50451      2.89191      9.47714         0.000093      0.000178      0.000410
      2.50255      0.00197     11.53266         0.000089     -0.000086      0.000144
      0.00016     -1.44432     15.67915        -0.000234      0.000490     -0.000366
     -0.00089      4.33108     11.52608        -0.001100      0.000633      0.000079
     -0.00033      1.44355     13.59862        -0.000034      0.000061     -0.000460
    total drift:                                0.000959     -0.037755      0.011441

  FREE ENERGIE OF THE ION-ELECTRON SYSTEM (eV)
  free  energy   TOTEN  =     -2408.95026066 eV

  energy  without entropy=    -2408.95026066  energy(sigma->0) =    -2408.95026066

 d Force = 0.3239614E-04[-0.810E-07, 0.649E-04]  d Energy = 0.2104027E-04 0.114E-04
 d Force = 0.7312589E-01[ 0.731E-01, 0.732E-01]  d Ewald  = 0.7312634E-01-0.443E-06

 reached required accuracy - stopping structural energy minimisation
 writing wavefunctions

 total charge

[...]

 magnetization (x)

# of ion       s       p       d       tot
    1       -0.009   0.060   0.000   0.050
    2       -0.001   0.004   0.000   0.003
    3       -0.000   0.001   0.000   0.001
    4       -0.000   0.000   0.000   0.000
    5       -0.000   0.001   0.000   0.001
    6       -0.000   0.001   0.000   0.001
    7        0.000   0.003   0.000   0.003
    8       -0.000   0.007   0.000   0.007
    9       -0.000   0.002   0.000   0.002
   10        0.001   0.014   0.000   0.015
   11       -0.000   0.000   0.000   0.000
   12        0.000   0.001   0.000   0.001
   13        0.000   0.004   0.000   0.004
   14        0.000   0.003   0.000   0.003
   15        0.000   0.002   0.000   0.002
   16        0.000   0.002   0.000   0.002
   17        0.000   0.001   0.000   0.001
   18        0.000   0.003   0.000   0.003
   19       -0.000   0.000   0.000   0.000
   20        0.000   0.015   0.000   0.015
   21       -0.000   0.001   0.000   0.000
   22        0.001   0.012   0.000   0.013
   23        0.000   0.002   0.000   0.002
   24        0.000   0.002   0.000   0.002
   25        0.000   0.003   0.000   0.003
   26        0.007   0.082   0.000   0.089
   27        0.000   0.004   0.000   0.004
   28        0.000   0.005   0.000   0.005
   29       -0.000   0.004   0.000   0.004
   30       -0.000   0.001   0.000   0.001
   31       -0.000   0.004   0.000   0.004
   32        0.001   0.011   0.000   0.012
   33        0.000   0.005   0.000   0.006
   34       -0.000   0.001   0.000   0.001
   35        0.000   0.006   0.000   0.006
   36        0.000   0.002   0.000   0.002
   37        0.000   0.002   0.000   0.002
   38        0.001   0.014   0.000   0.014
   39        0.000   0.005   0.000   0.005
   40        0.001   0.013   0.000   0.014
   41       -0.000   0.001   0.000   0.001
   42        0.000   0.001   0.000   0.001
   43        0.000   0.006   0.000   0.006
   44        0.000   0.001   0.000   0.001
   45        0.000   0.002   0.000   0.002
   46       -0.000   0.001   0.000   0.001
   47        0.000   0.002   0.000   0.003
   48        0.000   0.001   0.000   0.001
   49        0.000   0.003   0.000   0.003
   50        0.000   0.003   0.000   0.003
   51       -0.000   0.001   0.000   0.001
   52        0.000   0.001   0.000   0.001
   53       -0.000   0.002   0.000   0.002
   54        0.000   0.002   0.000   0.002
   55       -0.001   0.005   0.000   0.004
   56       -0.000   0.001   0.000   0.001
   57       -0.000   0.006   0.000   0.006
   58       -0.000   0.001   0.000   0.001
   59       -0.000   0.001   0.000   0.001
   60       -0.000   0.002   0.000   0.002
[...]
  201        0.000   0.003   0.000   0.003
  202        0.000   0.001   0.000   0.002
  203        0.000   0.002   0.000   0.002
  204       -0.000   0.001   0.000   0.000
  205        0.000   0.004   0.000   0.004
  206        0.000   0.001   0.000   0.001
  207       -0.000   0.007   0.000   0.007
  208        0.001   0.014   0.000   0.015
  209       -0.000   0.002   0.000   0.002
  210       -0.000   0.001   0.000   0.001
  211        0.000   0.003   0.000   0.003
  212       -0.000   0.001   0.000   0.001
  213       -0.001   0.004   0.000   0.003
  214       -0.000   0.000   0.000  -0.000
  215       -0.000   0.001   0.000   0.001
tot          0.064   1.361   0.000   1.425