 vasp.5.4.4.18Apr17-6-g9f103f2a35 (build Dec 19 2024 10:44:08) gamma-only
 executed on NVIDIA22.7_CrayMPICH date 2025.02.14  10:54:55

 INCAR:
 POTCAR:   PAW_PBE Si 05Jan2001
 POTCAR:   PAW_PBE C 08Apr2002
 POTCAR:   PAW_PBE Si 05Jan2001
   VRHFIN =Si: s2p2

   TITEL  = PAW_PBE Si 05Jan2001
   POMASS =   28.085; ZVAL   =    4.000    mass and valenz
   ENMAX  =  245.345; ENMIN  =  184.009 eV
   QCUT   =   -4.246; QGAM   =    8.493    optimization parameters

   Description
     l     E      TYP  RCUT    TYP  RCUT
     0   .000     23  1.900
     0   .000     23  1.900
     1   .000     23  1.900
     1   .000     23  1.900
     2   .000      7  1.900

 POTCAR:   PAW_PBE C 08Apr2002
   VRHFIN =C: s2p2

   TITEL  = PAW_PBE C 08Apr2002
   POMASS =   12.011; ZVAL   =    4.000    mass and valenz
   ENMAX  =  400.000; ENMIN  =  300.000 eV
   QCUT   =   -5.516; QGAM   =   11.032    optimization parameters

   Description
     l     E      TYP  RCUT    TYP  RCUT
     0   .000     23  1.200
     0   .000     23  1.200
     1   .000     23  1.500
     1  2.500     23  1.500
     2   .000      7  1.500

 Optimization of the real space projectors (new method)

 maximal supplied QI-value         = 19.84
 optimisation between [QCUT,QGAM] = [ 10.12, 20.44] = [ 28.68,116.96] Ry
 Optimized for a Real-space Cutoff    1.38 Angstroem

   l    n(q)    QCUT    max X(q) W(low)/X(q) W(high)/X(q)  e(spline)
   0      8    10.119     8.708    0.16E-04    0.67E-05    0.60E-08
   0      8    10.119   106.241    0.56E-04    0.11E-03    0.54E-07
   1      8    10.119     5.901    0.16E-04    0.16E-05    0.22E-07
   1      8    10.119    73.241    0.22E-03    0.17E-03    0.18E-06
 Optimization of the real space projectors (new method)

 maximal supplied QI-value         = 25.13
 optimisation between [QCUT,QGAM] = [ 10.05, 20.36] = [ 28.30,116.06] Ry
 Optimized for a Real-space Cutoff    1.38 Angstroem

   l    n(q)    QCUT    max X(q) W(low)/X(q) W(high)/X(q)  e(spline)
   0      8    10.053     5.582    0.33E-04    0.15E-04    0.75E-07
   0      8    10.053    69.432    0.23E-03    0.38E-03    0.25E-06
   1      8    10.053     2.780    0.76E-04    0.11E-03    0.15E-06
   1      8    10.053     4.549    0.19E-03    0.19E-03    0.27E-06
 PAW_PBE Si 05Jan2001                   :
 PAW_PBE C 08Apr2002                    :

 POSCAR: generated by phonopy
  positions in direct lattice
  velocities in cartesian coordinates
 exchange correlation table for  LEXCH =        8
   RHO(1)=    0.500       N(1)  =     2000
   RHO(2)=  100.500       N(2)  =     4000

 ion  position               nearest neighbor table
   1  0.000  0.000  0.000-  26 1.98 189 1.98 136 1.98  75 1.98  82 1.98 117 1.98
   2  0.205  0.205  0.039- 189 1.54 139 1.54  91 1.54  40 1.56
   3  0.207  0.207  0.373-  41 1.53  92 1.54 140 1.54 190 1.55
   4  0.209  0.209  0.707-  42 1.53 191 1.54 141 1.54  93 1.54
   5  0.209  0.541  0.042-  94 1.53 192 1.54 142 1.54  43 1.54
   6  0.208  0.541  0.375-  95 1.53  44 1.53 143 1.54 193 1.54
   7  0.209  0.542  0.708-  45 1.54  96 1.54 144 1.54 194 1.54
   8  0.211  0.871  0.042- 136 1.51 195 1.52  97 1.53  37 1.55
   9  0.208  0.874  0.375- 196 1.53  38 1.54  98 1.54 137 1.54
  10  0.211  0.875  0.706- 138 1.53  39 1.53 197 1.53  99 1.54
  11  0.541  0.209  0.042- 148 1.53 198 1.54 100 1.54  49 1.54
  12  0.541  0.208  0.375- 149 1.53  50 1.53 101 1.54 199 1.54
  13  0.542  0.209  0.708-  51 1.54 150 1.54 102 1.54 200 1.54
  14  0.542  0.542  0.042- 103 1.53 151 1.53 201 1.54  52 1.54
  15  0.541  0.541  0.375- 104 1.54 152 1.54  53 1.54 202 1.54
  16  0.542  0.542  0.708- 153 1.53 105 1.53  54 1.54 203 1.54
  17  0.542  0.875  0.042- 145 1.53 204 1.54 106 1.54  46 1.54
  18  0.541  0.875  0.376-  47 1.53 146 1.53 205 1.54 107 1.54
  19  0.543  0.875  0.709- 147 1.53  48 1.53 108 1.54 206 1.54
  20  0.871  0.211  0.042-  82 1.51 207 1.52 157 1.53  31 1.55
  21  0.874  0.208  0.375- 208 1.53  32 1.54 158 1.54  83 1.54
  22  0.875  0.211  0.706-  84 1.53  33 1.53 209 1.53 159 1.54
  23  0.875  0.542  0.042-  85 1.53 210 1.54 160 1.54  34 1.54
  24  0.875  0.541  0.376-  35 1.53  86 1.53 211 1.54 161 1.54
  25  0.875  0.543  0.709-  87 1.53  36 1.53 162 1.54 212 1.54
  26  0.874  0.874  0.052-  88 1.51 154 1.51 213 1.54   1 1.98
  27  0.875  0.875  0.376-  29 1.53 214 1.54 155 1.54  89 1.54
  28  0.877  0.877  0.711-  30 1.53  90 1.54 156 1.54 215 1.55
  29  0.958  0.958  0.292- 163 1.53  27 1.53 115 1.55  73 1.55
  30  0.959  0.959  0.625- 164 1.53  28 1.53 116 1.54  74 1.54
  31  0.958  0.292  0.958- 165 1.53  78 1.53  20 1.55 111 1.55
  32  0.957  0.291  0.291-  21 1.54  76 1.54 166 1.54 109 1.56
  33  0.958  0.293  0.624-  22 1.53  77 1.53 167 1.54 110 1.54
  34  0.959  0.625  0.959- 168 1.53  81 1.53  23 1.54 114 1.54
  35  0.958  0.624  0.293-  79 1.53  24 1.53 169 1.54 112 1.54
  36  0.959  0.626  0.626-  25 1.53  80 1.53 170 1.54 113 1.54
  37  0.292  0.958  0.958- 171 1.53 126 1.53   8 1.55  57 1.55
  38  0.291  0.957  0.291-   9 1.54 124 1.54 172 1.54  55 1.56
  39  0.293  0.958  0.624-  10 1.53 125 1.53 173 1.54  56 1.54
  40  0.291  0.291  0.957-  60 1.54 120 1.54 174 1.54   2 1.56
  41  0.291  0.291  0.291-   3 1.53  58 1.53 118 1.53 175 1.54
  42  0.292  0.292  0.624-   4 1.53  59 1.53 119 1.53 176 1.54
  43  0.293  0.624  0.958-  63 1.53 123 1.53 177 1.54   5 1.54
  44  0.292  0.624  0.292-  61 1.53   6 1.53 121 1.53 178 1.54
  45  0.292  0.625  0.625-   7 1.54  62 1.54 122 1.54 179 1.54
  46  0.625  0.959  0.959- 180 1.53 135 1.53  17 1.54  66 1.54
  47  0.624  0.958  0.293- 133 1.53  18 1.53 181 1.54  64 1.54
  48  0.626  0.959  0.626-  19 1.53 134 1.53 182 1.54  65 1.54
  49  0.624  0.293  0.958- 129 1.53  69 1.53 183 1.54  11 1.54
  50  0.624  0.292  0.292- 127 1.53  12 1.53  67 1.53 184 1.54
  51  0.625  0.292  0.625-  13 1.54 128 1.54  68 1.54 185 1.54
  52  0.626  0.626  0.959-  72 1.53 132 1.53 186 1.54  14 1.54
  53  0.625  0.625  0.292-  70 1.54 130 1.54  15 1.54 187 1.54
  54  0.626  0.626  0.626-  16 1.54 131 1.54  71 1.54 188 1.54
  55  0.205  0.039  0.205- 136 1.54  91 1.54 190 1.54  38 1.56
  56  0.209  0.042  0.541-  92 1.53 137 1.54 191 1.54  39 1.54
  57  0.211  0.042  0.871- 189 1.51 138 1.52  93 1.53  37 1.55
  58  0.207  0.373  0.207-  41 1.53  94 1.54 193 1.54 139 1.55
  59  0.208  0.375  0.541-  95 1.53  42 1.53 194 1.54 140 1.54
  60  0.208  0.375  0.874- 141 1.53  40 1.54  96 1.54 192 1.54
[...]
 201  0.458  0.458  0.958-  69 1.53 123 1.53  14 1.54 174 1.54
 202  0.458  0.458  0.292-  67 1.53 121 1.53 175 1.54  15 1.54
 203  0.459  0.459  0.625-  68 1.54 122 1.54 176 1.54  16 1.54
 204  0.459  0.791  0.958-  72 1.53  17 1.54 126 1.54 177 1.54
 205  0.458  0.791  0.292- 178 1.54  70 1.54 124 1.54  18 1.54
 206  0.459  0.792  0.625-  71 1.53 179 1.53 125 1.54  19 1.54
 207  0.789  0.129  0.958-  75 1.51  20 1.52 129 1.53 180 1.55
 208  0.789  0.125  0.294-  73 1.53 181 1.53  21 1.53 127 1.54
 209  0.792  0.126  0.625-  22 1.53 182 1.54 128 1.54  74 1.54
 210  0.791  0.459  0.958- 132 1.53  23 1.54  78 1.54 183 1.54
 211  0.791  0.458  0.292- 184 1.54 130 1.54  76 1.54  24 1.54
 212  0.792  0.459  0.625- 131 1.53 185 1.53  77 1.54  25 1.54
 213  0.795  0.795  0.961-  26 1.54  81 1.54 135 1.54 186 1.56
 214  0.791  0.791  0.293- 187 1.53  27 1.54 133 1.54  79 1.54
 215  0.793  0.793  0.627- 188 1.53 134 1.54  80 1.54  28 1.55

IMPORTANT INFORMATION: All symmetrisations will be switched off!
NOSYMM: (Re-)initialisation of all symmetry stuff for point group C_1.

 KPOINTS: pymatgen v1.1 with grid density = 2210 /

Automatic generation of k-mesh.
Space group operators:
 irot       det(A)        alpha          n_x          n_y          n_z        tau_x        tau_y        tau_z
    1     1.000000     0.000000     1.000000     0.000000     0.000000     0.000000     0.000000     0.000000

 Subroutine IBZKPT returns following result:

 Found      1 irreducible k-points:

 Following reciprocal coordinates:
            Coordinates               Weight
  0.000000  0.000000  0.000000      1.000000

 Following cartesian coordinates:
            Coordinates               Weight
  0.000000  0.000000  0.000000      1.000000

 Subroutine IBZKPT_HF returns following result:

 Found      1 k-points in 1st BZ
 the following      1 k-points will be used (e.g. in the exchange kernel)
 Following reciprocal coordinates:   # in IRBZ
  0.000000  0.000000  0.000000    1.00000000   1 t-inv F

 SYSTEM =  unknown system
 POSCAR =  generated by phonopy

 Startparameter for this run:
   NWRITE =      2    write-flag & timer
   PREC   = accura    normal or accurate (medium, high low for compatibility)
   ISTART =      1    job   : 0-new  1-cont  2-samecut
   ICHARG =      2    charge: 1-file 2-atom 10-const
   ISPIN  =      2    spin polarized calculation?
   LNONCOLLINEAR =      F non collinear calculations
   LSORBIT =      F    spin-orbit coupling
   INIWAV =      1    electr: 0-lowe 1-rand  2-diag
   LASPH  =      F    aspherical Exc in radial PAW
   METAGGA=      F    non-selfconsistent MetaGGA calc.

 Electronic Relaxation 1
   ENCUT  =  400.0 eV  29.40 Ry    5.42 a.u.  17.36 17.36 17.36*2*pi/ulx,y,z
   ENINI  =  400.0     initial cutoff
   ENAUG  =  644.9 eV  augmentation charge cutoff
   NELM   =    100;   NELMIN=  2; NELMDL=  0     # of ELM steps
   EDIFF  = 0.1E-03   stopping-criterion for ELM
   LREAL  =      T    real-space projection
   NLSPLINE    = F    spline interpolate recip. space projectors
   LCOMPAT=      F    compatible to vasp.4.4
   GGA_COMPAT  = T    GGA compatible to vasp.4.4-vasp.4.6
   LMAXPAW     = -100 max onsite density
   LMAXMIX     =    2 max onsite mixed and CHGCAR
   VOSKOWN=      0    Vosko Wilk Nusair interpolation
   ROPT   =   -0.00025  -0.00025
 Ionic relaxation
   EDIFFG = -.1E-01   stopping-criterion for IOM
   NSW    =     99    number of steps for IOM
   NBLOCK =      1;   KBLOCK =     99    inner block; outer block
   IBRION =      2    ionic relax: 0-MD 1-quasi-New 2-CG
   NFREE  =      1    steps in history (QN), initial steepest desc. (CG)
   ISIF   =      2    stress and relaxation
   IWAVPR =     11    prediction:  0-non 1-charg 2-wave 3-comb
   ISYM   =      0    0-nonsym 1-usesym 2-fastsym
   LCORR  =      T    Harris-Foulkes like correction to forces

   POTIM  = 0.5000    time-step for ionic-motion
   TEIN   =    0.0    initial temperature
   TEBEG  =    0.0;   TEEND  =   0.0 temperature during run
   SMASS  =  -3.00    Nose mass-parameter (am)
   estimated Nose-frequenzy (Omega)   =  0.10E-29 period in steps =****** mass=  -0.259E-26a.u.
   SCALEE = 1.0000    scale energy and forces
   NPACO  =    256;   APACO  = 16.0  distance and # of slots for P.C.
   PSTRESS=    0.0 pullay stress

  Mass of Ions in am
   POMASS =  28.09 12.01
  Ionic Valenz
   ZVAL   =   4.00  4.00
  Atomic Wigner-Seitz radii
  virtual crystal weights
   VCA    =   1.00  1.00
   NELECT =     860.0000    total number of electrons
   NUPDOWN=       2.0000    fix difference up-down

 DOS related values:
   EMIN   =  10.00;   EMAX   =-10.00  energy-range for DOS
   EFERMI =   0.00
   ISMEAR =    -2;   SIGMA  =   0.05  broadening in eV -4-tet -1-fermi 0-gaus

 Electronic relaxation 2 (details)
[...]
   0.678E+01 0.804E+01 -.491E+01   -.654E+01 -.775E+01 0.486E+01   -.239E+00 -.284E+00 0.556E-01
   -.453E+01 0.165E+01 0.309E+01   0.452E+01 -.166E+01 -.317E+01   0.133E-01 0.503E-02 0.844E-01
   -.175E+01 -.104E+01 0.521E+01   0.173E+01 0.988E+00 -.531E+01   0.200E-01 0.498E-01 0.109E+00
   -.343E+01 0.416E+01 -.157E+00   0.350E+01 -.423E+01 0.180E+00   -.617E-01 0.623E-01 -.232E-01
   0.438E+00 -.360E+01 0.241E+00   -.484E+00 0.369E+01 -.219E+00   0.408E-01 -.841E-01 -.223E-01
   0.393E+00 -.124E+01 0.171E+01   -.413E+00 0.127E+01 -.174E+01   0.151E-01 -.325E-01 0.285E-01
   0.533E+00 0.474E+00 -.192E+01   -.504E+00 -.468E+00 0.192E+01   -.270E-01 -.957E-02 -.528E-02
   -.965E-01 -.614E+01 -.297E+01   0.107E+00 0.621E+01 0.306E+01   -.130E-01 -.654E-01 -.910E-01
   0.483E+00 -.223E+01 0.602E+00   -.488E+00 0.222E+01 -.626E+00   0.467E-02 0.136E-01 0.210E-01
   -.208E+01 0.255E+01 -.566E+01   0.214E+01 -.257E+01 0.576E+01   -.585E-01 0.194E-01 -.106E+00
   -.318E+02 -.521E+01 0.575E+01   0.311E+02 0.589E+01 -.631E+01   0.693E+00 -.655E+00 0.532E+00
   -.699E+01 -.454E+01 0.342E+01   0.709E+01 0.443E+01 -.332E+01   -.846E-01 0.108E+00 -.932E-01
   -.335E+01 0.923E+01 0.734E+00   0.372E+01 -.939E+01 -.597E+00   -.343E+00 0.125E+00 -.133E+00
   0.165E+01 -.520E+01 -.165E+01   -.178E+01 0.519E+01 0.168E+01   0.114E+00 0.899E-02 -.286E-01
   0.152E+01 -.513E+00 0.176E+01   -.154E+01 0.587E+00 -.168E+01   0.205E-01 -.654E-01 -.854E-01
   0.410E+01 0.256E+01 -.475E+01   -.414E+01 -.267E+01 0.475E+01   0.381E-01 0.101E+00 -.908E-02
   0.597E+01 -.728E+02 -.196E+02   -.557E+01 0.790E+02 0.216E+02   -.400E+00 -.594E+01 -.191E+01
   0.195E+01 -.681E+01 -.898E+00   -.196E+01 0.683E+01 0.825E+00   0.521E-02 -.170E-01 0.675E-01
   0.130E+01 0.140E+02 -.181E+02   -.185E+01 -.141E+02 0.182E+02   0.520E+00 0.145E+00 -.161E+00
   0.174E+01 -.260E+02 0.636E+01   -.110E+01 0.262E+02 -.644E+01   -.616E+00 -.243E+00 0.735E-01
   0.606E-01 0.107E+02 -.588E+01   -.962E-01 -.107E+02 0.589E+01   0.283E-01 0.402E-01 -.174E-01
   -.216E+02 0.145E+02 0.637E+01   0.222E+02 -.141E+02 -.645E+01   -.517E+00 -.411E+00 0.736E-01
   -.114E+02 -.656E+01 0.733E+01   0.112E+02 0.648E+01 -.716E+01   0.148E+00 0.853E-01 -.163E+00
   -.541E+01 0.240E+01 -.587E+00   0.539E+01 -.259E+01 0.585E+00   0.200E-01 0.166E+00 0.146E-02
   0.927E+01 -.528E+01 -.588E+01   -.933E+01 0.528E+01 0.589E+01   0.488E-01 0.452E-02 -.174E-01
   -.618E+00 -.588E+01 -.599E+00   0.450E+00 0.596E+01 0.597E+00   0.153E+00 -.654E-01 0.130E-02
   0.430E+01 0.248E+01 -.549E+01   -.431E+01 -.248E+01 0.526E+01   0.595E-02 0.344E-02 0.219E+00
   0.216E+02 0.124E+02 0.581E+01   -.219E+02 -.126E+02 -.576E+01   0.312E+00 0.181E+00 -.435E-01
   0.106E+02 -.854E+01 0.600E+01   -.111E+02 0.884E+01 -.621E+01   0.473E+00 -.283E+00 0.210E+00
   0.416E+01 0.337E+01 -.211E+01   -.417E+01 -.311E+01 0.222E+01   0.526E-02 -.249E+00 -.988E-01
   -.210E+01 0.135E+02 0.600E+01   0.211E+01 -.140E+02 -.622E+01   -.829E-02 0.550E+00 0.209E+00
   -.170E+01 -.970E+00 0.840E+01   0.176E+01 0.101E+01 -.844E+01   -.624E-01 -.359E-01 0.512E-01
   -.176E+01 0.214E+01 0.624E+00   0.179E+01 -.221E+01 -.644E+00   -.248E-01 0.600E-01 0.207E-01
   0.500E+01 0.192E+01 -.212E+01   -.478E+01 -.205E+01 0.222E+01   -.213E+00 0.129E+00 -.989E-01
   0.976E+00 -.258E+01 0.612E+00   -.102E+01 0.265E+01 -.632E+00   0.396E-01 -.515E-01 0.207E-01
   0.177E+01 0.102E+01 -.320E+01   -.175E+01 -.100E+01 0.322E+01   -.249E-01 -.144E-01 -.243E-01
   -.814E+01 -.470E+01 -.619E+01   0.826E+01 0.477E+01 0.611E+01   -.122E+00 -.706E-01 0.689E-01
   0.545E+00 -.673E+01 0.460E+00   -.496E+00 0.676E+01 -.616E+00   -.440E-01 -.223E-01 0.148E+00
   -.218E+01 0.291E+01 -.627E+01   0.218E+01 -.293E+01 0.645E+01   0.100E-02 0.202E-01 -.182E+00
   -.556E+01 0.384E+01 0.467E+00   0.561E+01 -.382E+01 -.623E+00   -.415E-01 -.271E-01 0.148E+00
   -.221E+01 -.126E+01 0.315E+01   0.207E+01 0.118E+01 -.315E+01   0.140E+00 0.810E-01 0.869E-03
   -.229E+01 0.275E+01 -.752E+00   0.231E+01 -.281E+01 0.789E+00   -.665E-02 0.562E-01 -.367E-01
   0.144E+01 -.335E+01 -.627E+01   -.146E+01 0.336E+01 0.645E+01   0.180E-01 -.926E-02 -.182E+00
   0.124E+01 -.336E+01 -.764E+00   -.129E+01 0.340E+01 0.801E+00   0.453E-01 -.337E-01 -.368E-01
   0.983E+00 0.561E+00 -.610E+01   -.993E+00 -.567E+00 0.617E+01   0.734E-02 0.430E-02 -.801E-01
   0.166E+02 -.132E+02 0.258E+02   -.167E+02 0.135E+02 -.266E+02   0.131E+00 -.277E+00 0.833E+00
   0.149E+01 0.238E+01 0.144E+01   -.160E+01 -.235E+01 -.147E+01   0.972E-01 -.290E-01 0.265E-01
   0.993E+01 0.321E+02 0.786E+00   -.103E+02 -.321E+02 -.220E-01   0.321E+00 -.322E-02 -.715E+00
   -.349E+01 0.111E+00 0.115E+02   0.355E+01 -.104E+00 -.116E+02   -.626E-01 -.189E-02 0.103E+00
   -.159E+01 0.129E+01 0.313E+01   0.164E+01 -.131E+01 -.313E+01   -.403E-01 0.156E-01 0.321E-02
   -.297E+01 0.906E+01 0.538E+00   0.313E+01 -.917E+01 -.677E+00   -.153E+00 0.104E+00 0.137E+00
[...]
   -.544E+00 -.476E+00 0.192E+01   0.515E+00 0.471E+00 -.192E+01   0.268E-01 0.877E-02 0.498E-02
   -.400E+00 0.123E+01 -.172E+01   0.421E+00 -.127E+01 0.175E+01   -.162E-01 0.325E-01 -.291E-01
   0.453E+01 -.165E+01 -.310E+01   -.452E+01 0.165E+01 0.318E+01   -.121E-01 -.457E-02 -.825E-01
   0.343E+01 -.416E+01 0.148E+00   -.350E+01 0.423E+01 -.172E+00   0.633E-01 -.631E-01 0.240E-01
   0.175E+01 0.103E+01 -.522E+01   -.173E+01 -.979E+00 0.533E+01   -.206E-01 -.501E-01 -.111E+00
   -.328E+02 0.746E+01 -.807E+00   0.330E+02 -.718E+01 0.469E-01   -.157E+00 -.278E+00 0.712E+00
   -.678E+01 -.805E+01 0.491E+01   0.653E+01 0.776E+01 -.485E+01   0.241E+00 0.287E+00 -.567E-01
   -.636E+01 0.709E+01 -.530E+00   0.638E+01 -.729E+01 0.669E+00   -.125E-01 0.183E+00 -.136E+00
   -.281E+01 -.967E-01 -.144E+01   0.284E+01 0.201E+00 0.146E+01   -.233E-01 -.985E-01 -.260E-01
   -.192E+01 -.264E+01 0.185E+01   0.173E+01 0.261E+01 -.175E+01   0.184E+00 0.360E-01 -.949E-01
   -.315E+00 0.202E+01 -.313E+01   0.312E+00 -.207E+01 0.312E+01   0.587E-02 0.412E-01 -.169E-02
   0.315E+01 -.209E+02 -.257E+02   -.334E+01 0.212E+02 0.266E+02   0.174E+00 -.251E+00 -.831E+00
   0.254E+01 -.106E+02 -.140E+01   -.245E+01 0.108E+02 0.130E+01   -.913E-01 -.178E+00 0.940E-01
   0.165E+01 0.306E+01 -.115E+02   -.169E+01 -.311E+01 0.116E+02   0.333E-01 0.537E-01 -.102E+00
   -.484E-01 -.280E-01 -.407E-01   -.729E-12 -.728E-12 -.462E-12   0.467E-01 0.268E-01 0.396E-01

 POSITION                                       TOTAL-FORCE (eV/Angst)
      0.00064      0.00037     -0.00110         0.001626      0.000919     -0.003258
     -0.00811      1.44222      2.76094         0.001481     -0.004459      0.001841
      0.00004     -1.44484      4.84630         0.003786      0.000299      0.004500
     -0.00312     -4.32986      6.91281         0.003745     -0.002553      0.001774
     -2.50189      2.89595      4.86234        -0.004123     -0.001934      0.000066
     -2.50255     -0.00216      6.90844         0.001151      0.004904      0.001135
     -2.50272     -2.89030      8.96188        -0.004060     -0.004192      0.005117
     -4.98785      4.33171      6.90583         0.001300      0.003334      0.001442
     -5.01037      1.44099      8.96046        -0.002220      0.001669      0.002148
     -4.99785     -1.42480     11.00598         0.001593     -0.000819      0.003160
      2.50601      2.89698      4.86039        -0.000897     -0.000300      0.003304
      2.50358     -0.00147      6.90523        -0.000249      0.001068      0.004067
      2.50690     -2.89382      8.96394         0.002094     -0.004425     -0.001121
     -0.00034      4.34593      6.91694        -0.003610      0.000576      0.000071
      0.00001      1.44589      8.96169        -0.003354      0.000647     -0.001522
     -0.00041     -1.44564     11.01875         0.001050     -0.002115     -0.000213
     -2.50747      5.79544      8.96906        -0.002588     -0.000393      0.000892
     -2.50950      2.89039     11.01304        -0.001391      0.003204     -0.002110
     -2.50447      0.00018     13.07599         0.002236      0.000184     -0.002600
      4.98205      4.35210      6.91562         0.002625     -0.003574     -0.001726
      5.01168      1.44242      8.96376         0.000516     -0.002597     -0.001254
      4.99659     -1.41449     11.01192         0.003834     -0.006717     -0.001920
      2.50769      5.79161      8.96564        -0.002185      0.000107     -0.000301
      2.51108      2.88638     11.01427         0.002460      0.001032     -0.001605
      2.50405      0.00170     13.07087        -0.001907     -0.006324     -0.001362
      0.03569      7.16918     11.07471         0.000144     -0.001722     -0.001099
      0.00072      4.33354     13.06285        -0.002387     -0.001073     -0.000902
      0.00065      1.45047     15.13842        -0.003922     -0.000964     -0.000933
      0.00740      5.77835     13.57440        -0.000932     -0.000916     -0.000478
     -0.00070      2.90225     15.62928        -0.006123     -0.001329     -0.002597
      5.00782     -2.88275     13.57443        -0.001078     -0.000328     -0.000636
      5.00583      2.89013      9.47395        -0.000973     -0.000468     -0.001531
      5.00476      0.02054     11.52400         0.000204     -0.002820     -0.001767
      2.51311     -1.45175     15.62925        -0.004396     -0.004517     -0.002493
      2.52018      4.32398     11.52400        -0.002377      0.001810     -0.001834
      2.50952      1.44887     13.57878         0.000994      0.000608     -0.000103
     -5.02272     -2.89989     13.56550        -0.000625     -0.000372      0.001109
     -5.02082      2.89513      9.45762         0.000426      0.001071     -0.000737
     -5.01105      0.01443     11.52505        -0.001163     -0.002825     -0.000394
     -0.00317     -5.79571      9.45766         0.001024     -0.000336     -0.000846
      0.00040      0.00024      5.36053         0.001764      0.001078      0.002351
      0.00022     -2.88724      7.42314         0.006774     -0.000304     -0.000549
     -2.49298     -4.34691     11.52504        -0.003321      0.000306     -0.000299
     -2.50029      1.44381      7.42314         0.003032      0.006043     -0.000527
     -2.50428     -1.44586      9.47853         0.000352      0.000265      0.002811
     -2.50585     -1.44675     15.63551        -0.002141     -0.001211      0.002056
     -2.51518      4.33383     11.52382         0.000009      0.001258     -0.000973
     -2.50798      1.44756     13.58672         0.000024      0.002056     -0.001479
      2.49558     -4.34512     11.52383         0.001303     -0.000667     -0.000884
      2.50071      1.44380      7.42190         0.002427      0.001372     -0.003232
      2.50388     -1.44674      9.47739         0.003025     -0.000061     -0.001326
     -0.00036     -2.89576     13.58669         0.001701     -0.001050     -0.001244
     -0.00097      2.89179      9.47739         0.001356      0.002770     -0.001396
     -0.00061     -0.00036     11.53568        -0.003138     -0.001691     -0.001903
      1.24495     -0.72809      2.76089        -0.003015      0.003455      0.002040
      1.25700     -3.61470      4.86234        -0.003562     -0.002401      0.000080
      1.25742     -6.48555      6.90585         0.003457     -0.000609      0.001361
     -1.25126      0.72246      4.84632         0.002163      0.003161      0.004394
     -1.25314     -2.16620      6.90843         0.004677     -0.001322      0.001184
     -1.25726     -5.05960      8.96048         0.000251     -0.002941      0.002110
[...]
      0.00031     -4.34596     11.52258         0.003684     -0.000784      0.000323
      0.00041      1.44564      7.42078        -0.000550      0.002294      0.000503
     -0.00001     -1.44590      9.47783         0.003796     -0.000352      0.001425
     -2.50601     -2.89697     13.57909         0.001043      0.000313     -0.003184
     -2.50692      2.89382      9.47557        -0.001703      0.004713      0.001152
     -2.50357      0.00148     11.53427         0.000231     -0.000874     -0.003703
      4.98780     -4.33182     11.53376        -0.000890     -0.003728     -0.000697
      4.99801      1.42486      7.43354        -0.000973      0.001353     -0.003250
      5.01037     -1.44101      9.47905         0.001851     -0.001665     -0.002292
      2.50190     -2.89592     13.57717         0.003853      0.001968      0.000148
      2.50277      2.89034      9.47763         0.003587      0.004297     -0.005107
      2.50257      0.00217     11.53109        -0.001105     -0.004763     -0.001199
      0.00801     -1.44229     15.67857        -0.002094      0.003295     -0.002598
      0.00311      4.32986     11.52675        -0.003691      0.002686     -0.002001
     -0.00005      1.44482     13.59325        -0.003479     -0.000382     -0.004319
    total drift:                                0.000286     -0.000037      0.000480

  FREE ENERGIE OF THE ION-ELECTRON SYSTEM (eV)
  free  energy   TOTEN  =     -2409.68662640 eV

  energy  without entropy=    -2409.68662640  energy(sigma->0) =    -2409.68662640

 d Force = 0.7070375E-06[-0.185E-05, 0.327E-05]  d Energy = 0.9401092E-05-0.869E-05
 d Force =-0.2655973E-02[-0.266E-02,-0.265E-02]  d Ewald  =-0.2655974E-02 0.294E-09

 reached required accuracy - stopping structural energy minimisation
 writing wavefunctions

 total charge

[...]

 magnetization (x)

# of ion       s       p       d       tot
    1       -0.004   0.085   0.000   0.081
    2       -0.000  -0.000   0.000  -0.001
    3       -0.000  -0.000   0.000  -0.000
    4       -0.000   0.000   0.000   0.000
    5       -0.000   0.000   0.000   0.000
    6        0.000   0.001   0.000   0.001
    7        0.000   0.005   0.000   0.005
    8        0.002   0.020   0.000   0.022
    9       -0.000   0.000   0.000  -0.000
   10        0.003   0.028   0.000   0.031
   11       -0.000   0.000   0.000   0.000
   12       -0.000   0.000   0.000   0.000
   13        0.000   0.001   0.000   0.001
   14        0.000   0.002   0.000   0.002
   15        0.000   0.001   0.000   0.001
   16        0.000   0.000   0.000   0.001
   17       -0.000   0.000   0.000   0.000
   18        0.000   0.002   0.000   0.002
   19        0.000   0.001   0.000   0.001
   20       -0.000   0.011   0.000   0.011
   21       -0.000  -0.001   0.000  -0.001
   22        0.000   0.003   0.000   0.004
   23        0.000   0.001   0.000   0.001
   24       -0.000   0.000   0.000   0.000
   25       -0.000   0.000   0.000   0.000
   26        0.004   0.037   0.000   0.041
   27       -0.000   0.001   0.000   0.001
   28        0.000   0.006   0.000   0.007
   29        0.000   0.003   0.000   0.003
   30       -0.000  -0.000   0.000  -0.000
   31        0.000   0.003   0.000   0.003
   32        0.003   0.026   0.000   0.029
   33        0.000   0.000   0.000   0.000
   34       -0.000  -0.000   0.000  -0.000
   35        0.000   0.000   0.000   0.000
   36        0.000   0.002   0.000   0.002
   37       -0.000  -0.001   0.000  -0.001
   38        0.000   0.003   0.000   0.004
   39        0.001   0.007   0.000   0.007
   40        0.000   0.003   0.000   0.004
   41        0.000   0.000   0.000   0.000
   42        0.000   0.000   0.000   0.000
   43        0.001   0.007   0.000   0.007
   44        0.000   0.000   0.000   0.000
   45       -0.000   0.000   0.000   0.000
   46        0.000   0.001   0.000   0.001
   47        0.000   0.004   0.000   0.005
   48       -0.000  -0.000   0.000  -0.000
   49        0.000   0.004   0.000   0.004
   50        0.000   0.003   0.000   0.003
   51        0.000   0.001   0.000   0.001
   52       -0.000  -0.000   0.000  -0.000
   53        0.000   0.001   0.000   0.001
   54        0.000   0.001   0.000   0.001
   55       -0.000  -0.000   0.000  -0.001
   56       -0.000   0.000   0.000   0.000
   57        0.002   0.020   0.000   0.022
   58       -0.000  -0.000   0.000  -0.000
   59        0.000   0.001   0.000   0.001
   60       -0.000   0.000   0.000  -0.000
[...]
  201        0.000   0.002   0.000   0.002
  202        0.000   0.000   0.000   0.000
  203        0.000   0.001   0.000   0.001
  204       -0.000   0.000   0.000   0.000
  205        0.000   0.001   0.000   0.001
  206       -0.000   0.000   0.000   0.000
  207        0.002   0.020   0.000   0.022
  208        0.003   0.028   0.000   0.031
  209       -0.000   0.000   0.000  -0.000
  210       -0.000   0.000   0.000  -0.000
  211        0.000   0.005   0.000   0.005
  212        0.000   0.001   0.000   0.001
  213       -0.000  -0.000   0.000  -0.001
  214       -0.000   0.000   0.000   0.000
  215       -0.000  -0.000   0.000  -0.000
tot          0.086   1.274   0.000   1.360